
     Program PWSCF v.7.5 starts on 16Sep2026 at 11: 5: 4 

     This program is part of the open-source Quantum ESPRESSO suite
     for quantum simulation of materials; please cite
         "P. Giannozzi et al., J. Phys.:Condens. Matter 21 395502 (2009);
         "P. Giannozzi et al., J. Phys.:Condens. Matter 29 465901 (2017);
         "P. Giannozzi et al., J. Chem. Phys. 152 154105 (2020);
          URL http://www.quantum-espresso.org", 
     in publications or presentations arising from this work. More details at
     http://www.quantum-espresso.org/quote

     Parallel version (MPI & OpenMP), running on      48 processor cores
     Number of MPI processes:                24
     Threads/MPI process:                     2

     MPI processes distributed on     1 nodes
     31660 MiB available memory on the printing compute node when the environment starts

     Reading input from espresso.pwi
Warning: card &CELL ignored
Warning: card &FCP ignored
Warning: card &RISM ignored

     Current dimensions of program PWSCF are:
     Max number of different atomic species (ntypx) = 10
     Max number of k-points (npk) =  40000
     Max angular momentum in pseudopotentials (lmaxx) =  4
     file Mg.pbe-n-kjpaw_psl.0.3.0.UPF: wavefunction(s)  3S renormalized
     file O.pbe-n-kjpaw_psl.0.1.UPF: wavefunction(s)  2P renormalized
     file C.pbe-n-kjpaw_psl.1.0.0.UPF: wavefunction(s)  2S 2P renormalized

     IMPORTANT: XC functional enforced from input :
     Exchange-correlation= VDW-DF2
                           (   1   4  13   0   2   0   0)
     Any further DFT definition will be discarded
     Please, verify this is what you really want

     Message from routine setup:
     using ibrav=0 with symmetry is DISCOURAGED, use correct ibrav instead

     R & G space division:  proc/nbgrp/npool/nimage =      24
     Subspace diagonalization in iterative solution of the eigenvalue problem:
     one sub-group per band group will be used
     ELPA distributed-memory algorithm (size of sub-group:  3*  3 procs)


     Parallelization info
     --------------------
     sticks:   dense  smooth     PW     G-vecs:    dense   smooth      PW
     Min        2371    1186    314               146092    51664    7070
     Max        2373    1187    316               146095    51667    7071
     Sum       56923   28471   7567              3506235  1239959  169683

     Using Slab Decomposition



     bravais-lattice index     =            0
     lattice parameter (alat)  =      41.4864  a.u.
     unit-cell volume          =   19743.0237 (a.u.)^3
     number of atoms/cell      =          216
     number of atomic types    =            5
     number of electrons       =       594.00
     number of Kohn-Sham states=          297
     kinetic-energy cutoff     =      60.0000  Ry
     charge density cutoff     =     480.0000  Ry
     scf convergence threshold =      1.0E-07
     mixing beta               =       0.3000
     number of iterations used =            8  plain     mixing
     energy convergence thresh.=      1.0E-04
     force convergence thresh. =      1.0E-03
     Exchange-correlation= VDW-DF2
                           (   1   4  13   0   2   0   0)
     nstep                     =          300


     celldm(1)=  41.486424  celldm(2)=   0.000000  celldm(3)=   0.000000
     celldm(4)=   0.000000  celldm(5)=   0.000000  celldm(6)=   0.000000

     crystal axes: (cart. coord. in units of alat)
               a(1) = (   1.000000   0.000000   0.000000 )  
               a(2) = (  -0.500000   0.866025   0.000000 )  
               a(3) = (   0.000000   0.000000   0.319275 )  

     reciprocal axes: (cart. coord. in units 2 pi/alat)
               b(1) = (  1.000000  0.577350 -0.000000 )  
               b(2) = (  0.000000  1.154701  0.000000 )  
               b(3) = (  0.000000 -0.000000  3.132095 )  


     PseudoPot. # 1 for Mg read from file:
     /home/seyoung/pseudo/Mg.pbe-n-kjpaw_psl.0.3.0.UPF
     MD5 check sum: 24ecedc7f3e3cbe212e682f4413594e4
     Pseudo is Projector augmented-wave + core cor, Zval =  2.0
     Generated using "atomic" code by A. Dal Corso  v.5.0.99 svn rev. 10869
     Shape of augmentation charge: PSQ
     Using radial grid of 1129 points,  4 beta functions with: 
                l(1) =   0
                l(2) =   0
                l(3) =   1
                l(4) =   1
     Q(r) pseudized with 0 coefficients 


     PseudoPot. # 2 for O  read from file:
     /home/seyoung/pseudo/O.pbe-n-kjpaw_psl.0.1.UPF
     MD5 check sum: 0234752ac141de4415c5fc33072bef88
     Pseudo is Projector augmented-wave + core cor, Zval =  6.0
     Generated using "atomic" code by A. Dal Corso  v.5.0.99 svn rev. 10869
     Shape of augmentation charge: BESSEL
     Using radial grid of 1095 points,  4 beta functions with: 
                l(1) =   0
                l(2) =   0
                l(3) =   1
                l(4) =   1
     Q(r) pseudized with 0 coefficients 


     PseudoPot. # 3 for H  read from file:
     /home/seyoung/pseudo/H.pbe-rrkjus_psl.1.0.0.UPF
     MD5 check sum: f52b6d4d1c606e5624b1dc7b2218f220
     Pseudo is Ultrasoft, Zval =  1.0
     Generated using "atomic" code by A. Dal Corso  v.5.1
     Using radial grid of  929 points,  2 beta functions with: 
                l(1) =   0
                l(2) =   0
     Q(r) pseudized with 0 coefficients 


     PseudoPot. # 4 for C  read from file:
     /home/seyoung/pseudo/C.pbe-n-kjpaw_psl.1.0.0.UPF
     MD5 check sum: 5d2aebdfa2cae82b50a7e79e9516da0f
     Pseudo is Projector augmented-wave + core cor, Zval =  4.0
     Generated using "atomic" code by A. Dal Corso  v.5.1
     Shape of augmentation charge: PSQ
     Using radial grid of 1073 points,  4 beta functions with: 
                l(1) =   0
                l(2) =   0
                l(3) =   1
                l(4) =   1
     Q(r) pseudized with 0 coefficients 


     PseudoPot. # 5 for N  read from file:
     /home/seyoung/pseudo/N.pbe-n-radius_5.UPF
     MD5 check sum: 16739722b17309cd8fe442a2ace49922
     Pseudo is Ultrasoft + core correction, Zval =  5.0
     Generated using "atomic" code by A. Dal Corso  v.5.1
     Using radial grid of 1085 points,  4 beta functions with: 
                l(1) =   0
                l(2) =   0
                l(3) =   1
                l(4) =   1
     Q(r) pseudized with 0 coefficients 


     atomic species   valence    mass     pseudopotential
     Mg                2.00    24.30500     Mg( 1.00)
     O                 6.00    15.99900     O ( 1.00)
     H                 1.00     1.00800     H ( 1.00)
     C                 4.00    12.01100     C ( 1.00)
     N                 5.00    14.00700     N ( 1.00)

      6 Sym. Ops. (no inversion) found ( 4 have fractional translation)



   Cartesian axes

     site n.     atom                  positions (alat units)
         1        Mg     tau(   1) = (   0.4660700   0.2473369   0.2655826  )
         2        Mg     tau(   2) = (   0.5527650   0.2799600   0.0527325  )
         3        Mg     tau(   3) = (   0.4811650   0.3387285   0.1591576  )
         4        Mg     tau(   4) = (  -0.0339300   0.6186885   0.2665426  )
         5        Mg     tau(   5) = (  -0.0188350   0.5272969   0.0536925  )
         6        Mg     tau(   6) = (   0.0527650   0.5860654   0.1601175  )
         7        O      tau(   7) = (   0.5209950   0.2033168   0.0083331  )
         8        O      tau(   8) = (   0.5634250   0.3495365   0.1147581  )
         9        O      tau(   9) = (   0.4155800   0.3131721   0.2211831  )
        10        O      tau(  10) = (   0.0209950   0.6627086   0.2045170  )
        11        O      tau(  11) = (  -0.0844200   0.5528533   0.3109420  )
        12        O      tau(  12) = (   0.0634250   0.5164889   0.0980920  )
        13        O      tau(  13) = (   0.4927850   0.2499090   0.1209638  )
        14        O      tau(  14) = (   0.5371800   0.3018099   0.2273888  )
        15        O      tau(  15) = (   0.4700350   0.3143066   0.0145387  )
        16        O      tau(  16) = (  -0.0072150   0.6161165   0.0918863  )
        17        O      tau(  17) = (  -0.0299650   0.5517188   0.1983113  )
        18        O      tau(  18) = (   0.0371800   0.5642156   0.3047364  )
        19        O      tau(  19) = (   0.4662300   0.1847752   0.1950132  )
        20        O      tau(  20) = (   0.6068650   0.3113794   0.3014383  )
        21        O      tau(  21) = (   0.4269050   0.3698708   0.0885882  )
        22        O      tau(  22) = (  -0.0337700   0.6812502   0.0178368  )
        23        O      tau(  23) = (  -0.0730950   0.4961546   0.1242619  )
        24        O      tau(  24) = (   0.1068650   0.5546460   0.2306869  )
        25        H      tau(  25) = (   0.4813100   0.0801073   0.1720669  )
        26        H      tau(  26) = (   0.6899700   0.3767730   0.2784920  )
        27        H      tau(  27) = (   0.3287200   0.4091450   0.0656419  )
        28        H      tau(  28) = (  -0.0186900   0.7859181   0.0407831  )
        29        H      tau(  29) = (  -0.1712800   0.4568804   0.1472082  )
        30        H      tau(  30) = (   0.1899700   0.4892524   0.2536332  )
        31        H      tau(  31) = (   0.0366950   0.8645099   0.0028128  )
        32        H      tau(  32) = (  -0.2670350   0.4655493   0.1092378  )
        33        H      tau(  33) = (   0.2303400   0.4019917   0.2156629  )
        34        H      tau(  34) = (   0.5366950   0.0015155   0.2100372  )
        35        H      tau(  35) = (   0.7303400   0.4640337   0.3164623  )
        36        H      tau(  36) = (   0.2329650   0.4004761   0.1036122  )
        37        H      tau(  37) = (   0.5413950   0.1004503   0.2749437  )
        38        H      tau(  38) = (   0.6423100   0.4186367   0.0620937  )
        39        H      tau(  39) = (   0.3162950   0.3469384   0.1685187  )
        40        H      tau(  40) = (   0.0413950   0.7655751   0.2571814  )
        41        H      tau(  41) = (  -0.1837050   0.5190870   0.0443313  )
        42        H      tau(  42) = (   0.1423100   0.4473887   0.1507564  )
        43        H      tau(  43) = (   0.1240500   0.7082356   0.0673607  )
        44        H      tau(  44) = (  -0.1753750   0.6193381   0.1737857  )
        45        H      tau(  45) = (   0.0513250   0.4044772   0.2802107  )
        46        H      tau(  46) = (   0.6240500   0.1577898   0.1454894  )
        47        H      tau(  47) = (   0.5513250   0.4615482   0.2519144  )
        48        H      tau(  48) = (   0.3246250   0.2466873   0.0390644  )
        49        H      tau(  49) = (   0.1650700   0.6446520   0.2687754  )
        50        H      tau(  50) = (  -0.1408200   0.6866542   0.0559253  )
        51        H      tau(  51) = (  -0.0242500   0.4007446   0.1623503  )
        52        H      tau(  52) = (   0.6650700   0.2213734   0.2633498  )
        53        H      tau(  53) = (   0.4757500   0.4652808   0.0504997  )
        54        H      tau(  54) = (   0.3591800   0.1793712   0.1569248  )
        55        H      tau(  55) = (   0.2734200   0.6214425   0.2560810  )
        56        H      tau(  56) = (  -0.1748950   0.7920928   0.0432309  )
        57        H      tau(  57) = (  -0.0985250   0.3185155   0.1496559  )
        58        H      tau(  58) = (   0.7734200   0.2445829   0.2760442  )
        59        H      tau(  59) = (   0.4014750   0.5475099   0.0631941  )
        60        H      tau(  60) = (   0.3251050   0.0739326   0.1696191  )
        61        H      tau(  61) = (   0.2461200   0.6787907   0.2059005  )
        62        H      tau(  62) = (  -0.2109100   0.7397762   0.3123255  )
        63        H      tau(  63) = (  -0.0352100   0.3134839   0.0994755  )
        64        H      tau(  64) = (   0.7461200   0.1872347   0.0069496  )
        65        H      tau(  65) = (   0.4647900   0.5525415   0.1133746  )
        66        H      tau(  66) = (   0.2890900   0.1262492   0.2197996  )
        67        H      tau(  67) = (   0.2292550   0.7482546   0.0627056  )
        68        H      tau(  68) = (  -0.2626350   0.6904388   0.1691307  )
        69        H      tau(  69) = (   0.0333800   0.2933574   0.2755557  )
        70        H      tau(  70) = (   0.7292550   0.1177708   0.1501444  )
        71        H      tau(  71) = (   0.5333800   0.5726680   0.2565695  )
        72        H      tau(  72) = (   0.2373650   0.1755867   0.0437194  )
        73        H      tau(  73) = (   0.2544150   0.6897113   0.1121645  )
        74        H      tau(  74) = (  -0.2245150   0.7414996   0.2185896  )
        75        H      tau(  75) = (  -0.0299000   0.3008399   0.0057395  )
        76        H      tau(  76) = (   0.7544150   0.1763141   0.1006855  )
        77        H      tau(  77) = (   0.4701000   0.5651855   0.2071106  )
        78        H      tau(  78) = (   0.2754850   0.1245258   0.3135356  )
        79        H      tau(  79) = (   0.3309200   0.6557891   0.0367901  )
        80        H      tau(  80) = (  -0.2333900   0.8247160   0.1432151  )
        81        H      tau(  81) = (  -0.0975300   0.2515457   0.2496401  )
        82        H      tau(  82) = (   0.8309200   0.2102363   0.1760600  )
        83        H      tau(  83) = (   0.4024700   0.6144797   0.2824850  )
        84        H      tau(  84) = (   0.2666100   0.0413094   0.0696350  )
        85        H      tau(  85) = (   0.3414900   0.7342163   0.0501390  )
        86        H      tau(  86) = (  -0.3065950   0.7946563   0.1565640  )
        87        H      tau(  87) = (  -0.0348950   0.2031782   0.2629890  )
        88        H      tau(  88) = (   0.8414900   0.1318091   0.1627111  )
        89        H      tau(  89) = (   0.4651050   0.6628472   0.2691361  )
        90        H      tau(  90) = (   0.1934050   0.0713692   0.0562861  )
        91        H      tau(  91) = (   0.2847000   0.7595562   0.2741903  )
        92        H      tau(  92) = (  -0.3001450   0.7328047   0.0613402  )
        93        H      tau(  93) = (   0.0154450   0.2396899   0.1677652  )
        94        H      tau(  94) = (   0.7847000   0.1064692   0.2579349  )
        95        H      tau(  95) = (   0.5154450   0.6263356   0.0450848  )
        96        H      tau(  96) = (   0.1998550   0.1332207   0.1515099  )
        97        H      tau(  97) = (   0.3447650   0.7086772   0.2569973  )
        98        H      tau(  98) = (  -0.2861150   0.8102620   0.0441472  )
        99        H      tau(  99) = (  -0.0586500   0.2131115   0.1505723  )
       100        H      tau( 100) = (   0.8447650   0.1573482   0.2751279  )
       101        H      tau( 101) = (   0.4413500   0.6529139   0.0622778  )
       102        H      tau( 102) = (   0.2138850   0.0557634   0.1687028  )
       103        H      tau( 103) = (   0.1065750   0.6367105   0.0358578  )
       104        H      tau( 104) = (  -0.1046950   0.6399668   0.1422828  )
       105        H      tau( 105) = (  -0.0018800   0.4553735   0.2487078  )
       106        H      tau( 106) = (   0.6065750   0.2293149   0.1769923  )
       107        H      tau( 107) = (   0.4981200   0.4106519   0.2834173  )
       108        H      tau( 108) = (   0.3953050   0.2260586   0.0705672  )
       109        H      tau( 109) = (   0.2202700   0.6109809   0.0396188  )
       110        H      tau( 110) = (  -0.1392600   0.7512944   0.1460439  )
       111        H      tau( 111) = (  -0.0810100   0.3697755   0.2524689  )
       112        H      tau( 112) = (   0.7202700   0.2550445   0.1732312  )
       113        H      tau( 113) = (   0.4189900   0.4962499   0.2796562  )
       114        H      tau( 114) = (   0.3607400   0.1147310   0.0668062  )
       115        H      tau( 115) = (   0.1684200   0.5991683   0.1300631  )
       116        H      tau( 116) = (  -0.1031050   0.7122972   0.2364881  )
       117        H      tau( 117) = (  -0.0653150   0.4205852   0.0236381  )
       118        H      tau( 118) = (   0.6684200   0.2668571   0.0827870  )
       119        H      tau( 119) = (   0.4346850   0.4454402   0.1892120  )
       120        H      tau( 120) = (   0.3968950   0.1537282   0.2956370  )
       121        H      tau( 121) = (   0.1498150   0.6652374   0.1584690  )
       122        H      tau( 122) = (  -0.1510200   0.6631503   0.2648940  )
       123        H      tau( 123) = (   0.0012050   0.4036631   0.0520440  )
       124        H      tau( 124) = (   0.6498150   0.2007880   0.0543811  )
       125        H      tau( 125) = (   0.5012050   0.4623623   0.1608061  )
       126        H      tau( 126) = (   0.3489800   0.2028751   0.2672311  )
       127        C      tau( 127) = (   0.5154550   0.1492075   0.0364069  )
       128        C      tau( 128) = (   0.6130550   0.3717934   0.1428320  )
       129        C      tau( 129) = (   0.3714900   0.3450245   0.2492570  )
       130        C      tau( 130) = (   0.0154550   0.7168179   0.1764431  )
       131        C      tau( 131) = (  -0.1285100   0.5210009   0.2828682  )
       132        C      tau( 132) = (   0.1130550   0.4942320   0.0700181  )
       133        C      tau( 133) = (   0.4988700   0.1423573   0.0995053  )
       134        C      tau( 134) = (   0.6272800   0.3608555   0.2059303  )
       135        C      tau( 135) = (   0.3738500   0.3628127   0.3123553  )
       136        C      tau( 136) = (  -0.0011300   0.7236681   0.1133448  )
       137        C      tau( 137) = (  -0.1261500   0.5032127   0.2197698  )
       138        C      tau( 138) = (   0.1272800   0.5051699   0.0069198  )
       139        C      tau( 139) = (   0.4950750   0.0833723   0.1247855  )
       140        C      tau( 140) = (   0.6802600   0.3870614   0.2312105  )
       141        C      tau( 141) = (   0.3246650   0.3955917   0.0183604  )
       142        C      tau( 142) = (  -0.0049250   0.7826531   0.0880646  )
       143        C      tau( 143) = (  -0.1753350   0.4704337   0.1944896  )
       144        C      tau( 144) = (   0.1802600   0.4789640   0.3009146  )
       145        C      tau( 145) = (   0.5085500   0.0305880   0.0917980  )
       146        C      tau( 146) = (   0.7192350   0.4251232   0.1982230  )
       147        C      tau( 147) = (   0.2722150   0.4103142   0.3046480  )
       148        C      tau( 148) = (   0.0085500   0.8354374   0.1210521  )
       149        C      tau( 149) = (  -0.2277850   0.4557112   0.2274771  )
       150        C      tau( 150) = (   0.2192350   0.4409022   0.0146271  )
       151        C      tau( 151) = (   0.5246250   0.0381138   0.0297341  )
       152        C      tau( 152) = (   0.7046800   0.4352817   0.1361591  )
       153        C      tau( 153) = (   0.2706950   0.3926299   0.2425842  )
       154        C      tau( 154) = (   0.0246250   0.8279116   0.1831160  )
       155        C      tau( 155) = (  -0.2293050   0.4733955   0.2895410  )
       156        C      tau( 156) = (   0.2046800   0.4307437   0.0766909  )
       157        C      tau( 157) = (   0.5275250   0.0952541   0.0028639  )
       158        C      tau( 158) = (   0.6537450   0.4092230   0.1092889  )
       159        C      tau( 159) = (   0.3187300   0.3615483   0.2157140  )
       160        C      tau( 160) = (   0.0275250   0.7707713   0.2099862  )
       161        C      tau( 161) = (  -0.1812700   0.5044771   0.3164112  )
       162        C      tau( 162) = (   0.1537450   0.4568024   0.1035611  )
       163        C      tau( 163) = (   0.4852500   0.1948730   0.1407428  )
       164        C      tau( 164) = (   0.5886100   0.3228023   0.2471679  )
       165        C      tau( 165) = (   0.4261400   0.3483501   0.0343178  )
       166        C      tau( 166) = (  -0.0147500   0.6711524   0.0721072  )
       167        C      tau( 167) = (  -0.0738600   0.5176753   0.1785322  )
       168        C      tau( 168) = (   0.0886100   0.5432231   0.2849573  )
       169        C      tau( 169) = (   0.2027400   0.6581793   0.0342039  )
       170        C      tau( 170) = (  -0.1713700   0.7125137   0.1406290  )
       171        C      tau( 171) = (  -0.0313700   0.3613578   0.2470540  )
       172        C      tau( 172) = (   0.7027400   0.2078461   0.1786461  )
       173        C      tau( 173) = (   0.4686300   0.5046676   0.2850712  )
       174        C      tau( 174) = (   0.3286300   0.1535117   0.0722211  )
       175        C      tau( 175) = (   0.2546500   0.6682945   0.2540344  )
       176        C      tau( 176) = (  -0.2060850   0.7524115   0.0411844  )
       177        C      tau( 177) = (  -0.0485650   0.3113448   0.1476094  )
       178        C      tau( 178) = (   0.7546500   0.1977309   0.2780907  )
       179        C      tau( 179) = (   0.4514350   0.5546806   0.0652407  )
       180        C      tau( 180) = (   0.2939150   0.1136139   0.1716657  )
       181        C      tau( 181) = (   0.3012250   0.7129381   0.2809078  )
       182        C      tau( 182) = (  -0.2680350   0.7704249   0.0680577  )
       183        C      tau( 183) = (  -0.0331900   0.2486879   0.1744828  )
       184        C      tau( 184) = (   0.8012250   0.1530873   0.2512173  )
       185        C      tau( 185) = (   0.4668100   0.6173375   0.0383673  )
       186        C      tau( 186) = (   0.2319650   0.0956005   0.1447923  )
       187        C      tau( 187) = (   0.2484250   0.7020781   0.0640466  )
       188        C      tau( 188) = (  -0.2322300   0.7301287   0.1704716  )
       189        C      tau( 189) = (  -0.0161950   0.2998440   0.2768966  )
       190        C      tau( 190) = (   0.7484250   0.1639473   0.1488035  )
       191        C      tau( 191) = (   0.4838050   0.5661814   0.2552285  )
       192        C      tau( 192) = (   0.2677700   0.1358967   0.0423784  )
       193        C      tau( 193) = (   0.3100350   0.7007791   0.0306281  )
       194        C      tau( 194) = (  -0.2619100   0.7841340   0.1370531  )
       195        C      tau( 195) = (  -0.0481250   0.2471377   0.2434781  )
       196        C      tau( 196) = (   0.8100350   0.1652463   0.1822220  )
       197        C      tau( 197) = (   0.4518750   0.6188877   0.2886470  )
       198        C      tau( 198) = (   0.2380900   0.0818914   0.0757970  )
       199        C      tau( 199) = (   0.1393950   0.6609766   0.0641264  )
       200        C      tau( 200) = (  -0.1421200   0.6562567   0.1705514  )
       201        C      tau( 201) = (   0.0027250   0.4148175   0.2769765  )
       202        C      tau( 202) = (   0.6393950   0.2050488   0.1487237  )
       203        C      tau( 203) = (   0.5027250   0.4512079   0.2551487  )
       204        C      tau( 204) = (   0.3578800   0.2097687   0.0422986  )
       205        N      tau( 205) = (   0.1963650   0.6733954   0.2875423  )
       206        N      tau( 206) = (  -0.1813600   0.6993848   0.0746923  )
       207        N      tau( 207) = (  -0.0150050   0.3592706   0.1811173  )
       208        N      tau( 208) = (   0.6963650   0.1926300   0.2445828  )
       209        N      tau( 209) = (   0.4849950   0.5067548   0.0317328  )
       210        N      tau( 210) = (   0.3186400   0.1666406   0.1381578  )
       211        N      tau( 211) = (   0.1370900   0.6335842   0.1268959  )
       212        N      tau( 212) = (  -0.1172450   0.6679567   0.2333209  )
       213        N      tau( 213) = (  -0.0198450   0.4305099   0.0204709  )
       214        N      tau( 214) = (   0.6370900   0.2324412   0.0859542  )
       215        N      tau( 215) = (   0.4801550   0.4355155   0.1923792  )
       216        N      tau( 216) = (   0.3827550   0.1980687   0.2988042  )

     number of k points=     2
                       cart. coord. in units 2pi/alat
        k(    1) = (   0.0000000   0.0000000   0.0000000), wk =   1.0000000
        k(    2) = (   0.0000000   0.0000000  -1.5660476), wk =   1.0000000

     Dense  grid:  3506235 G-vectors     FFT dimensions: ( 300, 300,  96)

     Smooth grid:  1239959 G-vectors     FFT dimensions: ( 216, 216,  72)

     Estimated max dynamical RAM per process >       1.05 GB

     Estimated total dynamical RAM >      25.25 GB

     Check: negative core charge=   -0.000001

     Initial potential from superposition of free atoms

     starting charge     593.9901, renormalised to     594.0000

     negative rho (up, down):  6.737E-06 0.000E+00


     %%%%%%%%%%%%%%%%%%%%%%%%%%%%%%%%%%%%%%%%%%%%%%%%%%%%%%%%%%%%%%%%%%%%%%%%
     %                                                                      %
     % You are using vdW-DF, which was implemented by the Thonhauser group. %
     % Please cite the following two papers that made this development      %
     % possible and the two reviews that describe the various versions:     %
     %                                                                      %
     %   T. Thonhauser et al., PRL 115, 136402 (2015).                      %
     %   T. Thonhauser et al., PRB 76, 125112 (2007).                       %
     %   K. Berland et al., Rep. Prog. Phys. 78, 066501 (2015).             %
     %   D.C. Langreth et al., J. Phys.: Condens. Matter 21, 084203 (2009). %
     %                                                                      %
     % If you are calculating stress with vdW-DF, please also cite:         %
     %                                                                      %
     %   R. Sabatini et al., J. Phys.: Condens. Matter 24, 424209 (2012).   %
     %                                                                      %
     %%%%%%%%%%%%%%%%%%%%%%%%%%%%%%%%%%%%%%%%%%%%%%%%%%%%%%%%%%%%%%%%%%%%%%%%

     %%%%%%%%%%%%%%%%%%%%%%%%%%%%%%%%%%%%%%%%%%%%%%%%%%%%%%%%%%%%%%%%%%%%%%%%
     %                                                                      %
     %  vdW-DF NEWS:                                                        %
     %                                                                      %
     %  * vdW-DF3 is now available. DOI: 10.1021/acs.jctc.0c00471           %
     %    use with input_dft = 'vdW-DF3-opt1' or 'vdW-DF3-opt2'             %
     %                                                                      %
     %  * Unscreened and range-separated hybrid vdW-DF-cx functionals       %
     %    DOI: 10.1063/1.4986522 and 10.1088/1361-648X/ac2ad2               %
     %    use with input_dft = 'vdW-DF-cx0'    and 'vdW-DF-ahcx'            %
     %  * Unscreened and range-separated hybrid vdW-DF2-b86r functionals    %
     %    DOI: 10.1063/1.4986522 and DOI: 10.1103/PhysRevX.12.041003        %
     %    use with input_dft = 'vdW-DF2-br0' and 'vdW-DF2-ahbr'             %
     %                                                                      %
     %%%%%%%%%%%%%%%%%%%%%%%%%%%%%%%%%%%%%%%%%%%%%%%%%%%%%%%%%%%%%%%%%%%%%%%%


     Starting wfcs are  558 randomized atomic wfcs
     Checking if some PAW data can be deallocated... 

     total cpu time spent up to now is       48.2 secs

     per-process dynamical memory:   316.0 Mb

     Self-consistent Calculation

     iteration #  1     ecut=    60.00 Ry     beta= 0.30
     Davidson diagonalization with overlap
     ethr =  1.00E-02,  avg # of iterations =  2.0

     negative rho (up, down):  1.624E-05 0.000E+00

     total cpu time spent up to now is      129.6 secs

     total energy              =   -2833.40785085 Ry
     estimated scf accuracy    <      28.00647843 Ry

     iteration #  2     ecut=    60.00 Ry     beta= 0.30
     Davidson diagonalization with overlap
     ethr =  4.71E-03,  avg # of iterations =  2.0

     negative rho (up, down):  4.172E-05 0.000E+00

     total cpu time spent up to now is      192.7 secs

     total energy              =   -2832.87516568 Ry
     estimated scf accuracy    <       6.09017247 Ry

     iteration #  3     ecut=    60.00 Ry     beta= 0.30
     Davidson diagonalization with overlap
     ethr =  1.03E-03,  avg # of iterations =  3.5

     negative rho (up, down):  6.359E-05 0.000E+00

     total cpu time spent up to now is      274.8 secs

     total energy              =   -2833.87492026 Ry
     estimated scf accuracy    <       1.11649378 Ry

     iteration #  4     ecut=    60.00 Ry     beta= 0.30
     Davidson diagonalization with overlap
     ethr =  1.88E-04,  avg # of iterations =  2.5

     negative rho (up, down):  1.115E-04 0.000E+00

     total cpu time spent up to now is      341.6 secs

     total energy              =   -2833.87641534 Ry
     estimated scf accuracy    <       0.27495451 Ry

     iteration #  5     ecut=    60.00 Ry     beta= 0.30
     Davidson diagonalization with overlap
     ethr =  4.63E-05,  avg # of iterations =  4.0

     negative rho (up, down):  1.149E-04 0.000E+00

     total cpu time spent up to now is      429.8 secs

     total energy              =   -2833.89471425 Ry
     estimated scf accuracy    <       0.06868445 Ry

     iteration #  6     ecut=    60.00 Ry     beta= 0.30
     Davidson diagonalization with overlap
     ethr =  1.16E-05,  avg # of iterations =  6.0

     negative rho (up, down):  1.215E-04 0.000E+00

     total cpu time spent up to now is      511.1 secs

     total energy              =   -2833.91297222 Ry
     estimated scf accuracy    <       0.01619723 Ry

     iteration #  7     ecut=    60.00 Ry     beta= 0.30
     Davidson diagonalization with overlap
     ethr =  2.73E-06,  avg # of iterations =  6.0

     negative rho (up, down):  1.260E-04 0.000E+00

     total cpu time spent up to now is      592.6 secs

     total energy              =   -2833.91570715 Ry
     estimated scf accuracy    <       0.00219868 Ry

     iteration #  8     ecut=    60.00 Ry     beta= 0.30
     Davidson diagonalization with overlap
     ethr =  3.70E-07,  avg # of iterations =  7.0

     negative rho (up, down):  1.267E-04 0.000E+00

     total cpu time spent up to now is      687.8 secs

     total energy              =   -2833.91640857 Ry
     estimated scf accuracy    <       0.00082061 Ry

     iteration #  9     ecut=    60.00 Ry     beta= 0.30
     Davidson diagonalization with overlap
     ethr =  1.38E-07,  avg # of iterations =  4.5

     negative rho (up, down):  1.274E-04 0.000E+00

     total cpu time spent up to now is      761.4 secs

     total energy              =   -2833.91650758 Ry
     estimated scf accuracy    <       0.00006671 Ry

     iteration # 10     ecut=    60.00 Ry     beta= 0.30
     Davidson diagonalization with overlap
     ethr =  1.12E-08,  avg # of iterations =  6.5

     negative rho (up, down):  1.280E-04 0.000E+00

     total cpu time spent up to now is      869.3 secs

     total energy              =   -2833.91653077 Ry
     estimated scf accuracy    <       0.00004519 Ry

     iteration # 11     ecut=    60.00 Ry     beta= 0.30
     Davidson diagonalization with overlap
     ethr =  7.61E-09,  avg # of iterations =  5.0

     negative rho (up, down):  1.283E-04 0.000E+00

     total cpu time spent up to now is      954.8 secs

     total energy              =   -2833.91654696 Ry
     estimated scf accuracy    <       0.00001416 Ry

     iteration # 12     ecut=    60.00 Ry     beta= 0.30
     Davidson diagonalization with overlap
     ethr =  2.38E-09,  avg # of iterations =  6.0

     negative rho (up, down):  1.286E-04 0.000E+00

     total cpu time spent up to now is     1030.9 secs

     total energy              =   -2833.91654641 Ry
     estimated scf accuracy    <       0.00000428 Ry

     iteration # 13     ecut=    60.00 Ry     beta= 0.30
     Davidson diagonalization with overlap
     ethr =  7.20E-10,  avg # of iterations =  7.0

     negative rho (up, down):  1.288E-04 0.000E+00

     total cpu time spent up to now is     1129.1 secs

     total energy              =   -2833.91654816 Ry
     estimated scf accuracy    <       0.00000123 Ry

     iteration # 14     ecut=    60.00 Ry     beta= 0.30
     Davidson diagonalization with overlap
     ethr =  2.07E-10,  avg # of iterations =  6.0

     negative rho (up, down):  1.289E-04 0.000E+00

     total cpu time spent up to now is     1207.9 secs

     total energy              =   -2833.91654846 Ry
     estimated scf accuracy    <       0.00000012 Ry

     iteration # 15     ecut=    60.00 Ry     beta= 0.30
     Davidson diagonalization with overlap
     ethr =  2.07E-11,  avg # of iterations =  5.0

     negative rho (up, down):  1.292E-04 0.000E+00

     total cpu time spent up to now is     1297.8 secs

     End of self-consistent calculation

          k = 0.0000 0.0000 0.0000 (154911 PWs)   bands (ev):

   -22.4324 -22.4324 -22.2886 -22.2886 -22.2886 -22.2886 -20.4945 -20.4941
   -20.4774 -20.4774 -20.4769 -20.4769 -20.0165 -20.0162 -20.0003 -20.0003
   -20.0001 -20.0001 -18.7265 -18.7265 -18.7254 -18.7254 -18.7238 -18.7226
   -18.1512 -18.1512 -18.1497 -18.1497 -18.1483 -18.1468 -17.1291 -17.1202
   -17.1202 -16.4891 -16.4675 -16.4675 -15.4260 -15.4260 -15.4260 -15.3657
   -15.3657 -15.3656 -14.8274 -14.8214 -14.8214 -14.8161 -14.8154 -14.8154
   -14.7031 -14.6461 -14.6461 -14.5425 -14.5335 -14.5335 -14.3103 -14.3103
   -14.3001 -13.1461 -13.0704 -13.0704 -12.7687 -12.7687 -12.7623 -12.7539
   -12.7539 -12.7501 -11.7095 -11.7095 -11.7075 -11.6836 -11.6836 -11.6772
   -11.6496 -11.6496 -11.6376 -11.2829 -11.2829 -11.2510 -10.8071 -10.8033
   -10.8033 -10.7976 -10.7782 -10.7782 -10.7664 -10.6930 -10.6930 -10.3775
   -10.3775 -10.3335  -9.8315  -9.7768  -9.7720  -9.7720  -9.7322  -9.7275
    -9.7275  -9.5553  -9.5553  -9.4752  -8.9737  -8.9737  -8.7783  -8.7713
    -8.7617  -8.7617  -8.7451  -8.7451  -8.6007  -8.6007  -8.5050  -8.4591
    -8.4591  -8.4335  -8.3959  -8.3832  -8.3832  -8.0998  -8.0998  -7.9088
    -7.7781  -7.7702  -7.7702  -7.6960  -7.6960  -7.6261  -7.5375  -7.5375
    -7.4847  -7.4354  -7.4320  -7.4320  -7.4043  -7.4043  -7.3181  -7.3115
    -7.3115  -7.3012  -7.2577  -7.2577  -7.1650  -7.1574  -7.1483  -7.1483
    -7.0773  -7.0773  -6.9841  -6.9830  -6.9830  -6.9218  -6.9218  -6.7848
    -6.7293  -6.6800  -6.6800  -6.6239  -6.6052  -6.6052  -6.5901  -6.5730
    -6.5730  -6.5415  -6.5415  -6.5237  -6.5002  -6.3815  -6.3543  -6.2694
    -6.2694  -6.2409  -6.2409  -6.1776  -6.1776  -6.1753  -6.1379  -6.1379
    -6.1089  -6.0941  -6.0941  -6.0487  -5.9896  -5.9896  -5.9615  -5.7320
    -5.7196  -5.7109  -5.7109  -5.7047  -5.7047  -5.6068  -5.6068  -5.5022
    -5.4865  -5.4865  -5.4843  -5.4051  -5.4051  -5.3959  -5.3608  -5.3405
    -5.3405  -5.3091  -5.3091  -5.3006  -5.1799  -5.1560  -5.1560  -5.1116
    -5.1084  -5.1084  -5.0020  -5.0020  -4.9878  -4.8449  -4.8449  -4.7377
    -4.5248  -4.5248  -4.4701  -4.4701  -4.4468  -4.4388  -4.3709  -4.3627
    -4.3627  -4.3070  -4.3070  -4.2633  -4.2268  -4.2268  -4.2238  -4.2129
    -4.1819  -4.1819  -4.0551  -4.0551  -4.0352  -4.0280  -3.9730  -3.9730
    -3.9141  -3.9141  -3.8609  -3.8579  -3.8181  -3.8162  -3.8162  -3.7096
    -3.6909  -3.6909  -3.4836  -3.4836  -3.4651  -3.4651  -3.4418  -3.1686
    -3.1686  -3.1171  -3.0984  -3.0746  -3.0746  -2.8624  -2.8624  -2.7860
    -2.7860  -2.6420  -2.6387  -2.5475  -2.5475  -2.5403  -2.5403  -2.4772
    -2.4686  -2.2346  -2.2346  -2.2222  -2.2222  -2.1987  -2.1875  -2.0056
    -2.0056  -1.9790  -1.9790  -1.8237  -1.8218  -1.6182  -1.6182  -1.5453
    -1.4014  -1.3985  -1.3985  -1.3602  -1.3602  -1.3586  -0.7222  -0.7222
    -0.6440

          k = 0.0000 0.0000-1.5660 (154844 PWs)   bands (ev):

   -22.3720 -22.3720 -22.3720 -22.3720 -22.2572 -22.2571 -20.5266 -20.5266
   -20.5263 -20.5263 -20.4629 -20.4624 -19.9944 -19.9944 -19.9940 -19.9940
   -19.9715 -19.9714 -18.6899 -18.6887 -18.6866 -18.6866 -18.6854 -18.6854
   -18.2042 -18.2028 -18.2002 -18.2002 -18.1988 -18.1988 -17.1100 -17.1100
   -17.1096 -16.4771 -16.4771 -16.4744 -15.4213 -15.4213 -15.4213 -15.3612
   -15.3611 -15.3611 -14.8182 -14.8182 -14.8178 -14.8127 -14.8126 -14.8126
   -14.6619 -14.6619 -14.6466 -14.5850 -14.5850 -14.5802 -14.3021 -14.3021
   -14.2954 -13.1089 -13.1089 -13.0789 -12.7773 -12.7717 -12.7717 -12.7641
   -12.7579 -12.7579 -11.6986 -11.6986 -11.6550 -11.6323 -11.6297 -11.6297
   -11.5781 -11.5730 -11.5730 -11.2373 -11.2373 -11.1782 -10.8317 -10.8301
   -10.8301 -10.8075 -10.8049 -10.8049 -10.7054 -10.7054 -10.6347 -10.3803
   -10.3803 -10.3472  -9.7906  -9.7906  -9.7806  -9.7521  -9.7521  -9.7379
    -9.7379  -9.7373  -9.5794  -9.2977  -9.2977  -8.9204  -8.8493  -8.8493
    -8.8463  -8.8463  -8.8122  -8.8066  -8.5358  -8.4354  -8.4354  -8.2277
    -8.2277  -8.2139  -8.1476  -8.1476  -8.1411  -8.0423  -7.9907  -7.9907
    -7.9295  -7.9295  -7.8632  -7.6795  -7.5941  -7.5941  -7.5318  -7.5308
    -7.5308  -7.4944  -7.4782  -7.4782  -7.4088  -7.3967  -7.3575  -7.3575
    -7.3471  -7.2785  -7.2785  -7.2603  -7.2429  -7.2429  -7.1982  -7.1982
    -7.0265  -6.9982  -6.9425  -6.9425  -6.8498  -6.8498  -6.8129  -6.7262
    -6.7262  -6.7133  -6.6657  -6.6657  -6.6442  -6.5999  -6.5713  -6.5713
    -6.5348  -6.5348  -6.4928  -6.4928  -6.4865  -6.4558  -6.3998  -6.3998
    -6.3698  -6.3698  -6.3419  -6.3419  -6.3248  -6.2767  -6.2739  -6.2739
    -6.2238  -6.2107  -6.2107  -6.2070  -6.2070  -6.1871  -6.1115  -6.0836
    -6.0290  -6.0290  -5.9133  -5.8775  -5.8775  -5.6382  -5.6382  -5.6196
    -5.5753  -5.4996  -5.4996  -5.4679  -5.4679  -5.4033  -5.3818  -5.3797
    -5.3797  -5.3261  -5.2880  -5.2880  -5.1453  -5.1440  -5.1440  -5.0977
    -5.0977  -5.0944  -4.8196  -4.8196  -4.8127  -4.7674  -4.7674  -4.6861
    -4.5962  -4.5102  -4.4813  -4.4813  -4.4621  -4.4621  -4.3568  -4.3510
    -4.3510  -4.2232  -4.2232  -4.2169  -4.1957  -4.1957  -4.1728  -4.1637
    -4.1614  -4.1614  -4.0633  -4.0269  -4.0269  -3.9901  -3.9901  -3.9155
    -3.9122  -3.7809  -3.6914  -3.6571  -3.6571  -3.4832  -3.4832  -3.4768
    -3.4624  -3.4624  -3.4558  -3.4511  -3.4511  -3.3725  -3.3725  -3.1048
    -3.0197  -3.0088  -3.0088  -2.9830  -2.9830  -2.8991  -2.8533  -2.8533
    -2.8154  -2.8154  -2.7983  -2.5249  -2.5206  -2.4873  -2.4873  -2.4798
    -2.4798  -2.2974  -2.2624  -2.2624  -2.2184  -2.1734  -2.1734  -2.0212
    -2.0212  -2.0032  -2.0031  -2.0031  -1.9641  -1.6025  -1.6025  -1.5424
    -1.3950  -1.3950  -1.3863  -1.3608  -1.3608  -1.3557  -0.6995  -0.6816
    -0.6816

     highest occupied level (ev):    -0.6440

!    total energy              =   -2833.91654848 Ry
     estimated scf accuracy    <       0.00000003 Ry

     The total energy is the sum of the following terms:
     one-electron contribution =   -6463.33897655 Ry
     hartree contribution      =    3420.10525550 Ry
     xc contribution           =    -673.68956354 Ry
     ewald contribution        =    1775.98892221 Ry
     one-center paw contrib.   =    -892.98218610 Ry

     convergence has been achieved in  15 iterations

     negative rho (up, down):  1.292E-04 0.000E+00

     Forces acting on atoms (cartesian axes, Ry/au):

     atom    1 type  1   force =    -0.00092882   -0.00088842   -0.00086743
     atom    2 type  1   force =     0.00123381   -0.00036017   -0.00086743
     atom    3 type  1   force =    -0.00030498    0.00124859   -0.00086743
     atom    4 type  1   force =    -0.00092882    0.00088842    0.00086743
     atom    5 type  1   force =    -0.00030498   -0.00124859    0.00086743
     atom    6 type  1   force =     0.00123381    0.00036017    0.00086743
     atom    7 type  2   force =     0.00198710   -0.00579666    0.00047278
     atom    8 type  2   force =     0.00402651    0.00461921    0.00047278
     atom    9 type  2   force =    -0.00601361    0.00117745    0.00047278
     atom   10 type  2   force =     0.00198710    0.00579666   -0.00047278
     atom   11 type  2   force =    -0.00601361   -0.00117745   -0.00047278
     atom   12 type  2   force =     0.00402651   -0.00461921   -0.00047278
     atom   13 type  2   force =    -0.00140902   -0.00697939    0.00125561
     atom   14 type  2   force =     0.00674884    0.00226945    0.00125561
     atom   15 type  2   force =    -0.00533982    0.00470994    0.00125561
     atom   16 type  2   force =    -0.00140902    0.00697939   -0.00125561
     atom   17 type  2   force =    -0.00533982   -0.00470994   -0.00125561
     atom   18 type  2   force =     0.00674884   -0.00226945   -0.00125561
     atom   19 type  2   force =     0.00060176    0.00079492   -0.00260046
     atom   20 type  2   force =    -0.00098930    0.00012368   -0.00260046
     atom   21 type  2   force =     0.00038754   -0.00091860   -0.00260046
     atom   22 type  2   force =     0.00060176   -0.00079492    0.00260046
     atom   23 type  2   force =     0.00038754    0.00091860    0.00260046
     atom   24 type  2   force =    -0.00098930   -0.00012368    0.00260046
     atom   25 type  3   force =     0.00064446    0.00005831   -0.00122953
     atom   26 type  3   force =    -0.00037273    0.00052896   -0.00122953
     atom   27 type  3   force =    -0.00027173   -0.00058727   -0.00122953
     atom   28 type  3   force =     0.00064446   -0.00005831    0.00122953
     atom   29 type  3   force =    -0.00027173    0.00058727    0.00122953
     atom   30 type  3   force =    -0.00037273   -0.00052896    0.00122953
     atom   31 type  3   force =    -0.00001332    0.00041361    0.00050424
     atom   32 type  3   force =    -0.00035153   -0.00021834    0.00050424
     atom   33 type  3   force =     0.00036486   -0.00019526    0.00050424
     atom   34 type  3   force =    -0.00001332   -0.00041361   -0.00050424
     atom   35 type  3   force =     0.00036486    0.00019526   -0.00050424
     atom   36 type  3   force =    -0.00035153    0.00021834   -0.00050424
     atom   37 type  3   force =    -0.00144629    0.00020187    0.00158038
     atom   38 type  3   force =     0.00054832   -0.00135346    0.00158038
     atom   39 type  3   force =     0.00089797    0.00115159    0.00158038
     atom   40 type  3   force =    -0.00144629   -0.00020187   -0.00158038
     atom   41 type  3   force =     0.00089797   -0.00115159   -0.00158038
     atom   42 type  3   force =     0.00054832    0.00135346   -0.00158038
     atom   43 type  3   force =     0.00008247   -0.00055543   -0.00014037
     atom   44 type  3   force =     0.00043978    0.00034914   -0.00014037
     atom   45 type  3   force =    -0.00052225    0.00020629   -0.00014037
     atom   46 type  3   force =     0.00008247    0.00055543    0.00014037
     atom   47 type  3   force =    -0.00052225   -0.00020629    0.00014037
     atom   48 type  3   force =     0.00043978   -0.00034914    0.00014037
     atom   49 type  3   force =    -0.00052097   -0.00063480   -0.00115514
     atom   50 type  3   force =     0.00081024   -0.00013378   -0.00115514
     atom   51 type  3   force =    -0.00028926    0.00076858   -0.00115514
     atom   52 type  3   force =    -0.00052097    0.00063480    0.00115514
     atom   53 type  3   force =    -0.00028926   -0.00076858    0.00115514
     atom   54 type  3   force =     0.00081024    0.00013378    0.00115514
     atom   55 type  3   force =    -0.00037049    0.00075208    0.00000936
     atom   56 type  3   force =    -0.00046607   -0.00069689    0.00000936
     atom   57 type  3   force =     0.00083657   -0.00005519    0.00000936
     atom   58 type  3   force =    -0.00037049   -0.00075208   -0.00000936
     atom   59 type  3   force =     0.00083657    0.00005519   -0.00000936
     atom   60 type  3   force =    -0.00046607    0.00069689   -0.00000936
     atom   61 type  3   force =     0.00072975   -0.00101157    0.00640796
     atom   62 type  3   force =     0.00051117    0.00113776    0.00640796
     atom   63 type  3   force =    -0.00124092   -0.00012619    0.00640796
     atom   64 type  3   force =     0.00072975    0.00101157   -0.00640796
     atom   65 type  3   force =    -0.00124092    0.00012619   -0.00640796
     atom   66 type  3   force =     0.00051117   -0.00113776   -0.00640796
     atom   67 type  3   force =     0.00030130   -0.00061448   -0.00020490
     atom   68 type  3   force =     0.00038150    0.00056817   -0.00020490
     atom   69 type  3   force =    -0.00068280    0.00004631   -0.00020490
     atom   70 type  3   force =     0.00030130    0.00061448    0.00020490
     atom   71 type  3   force =    -0.00068280   -0.00004631    0.00020490
     atom   72 type  3   force =     0.00038150   -0.00056817    0.00020490
     atom   73 type  3   force =     0.00120752    0.00160304   -0.00546443
     atom   74 type  3   force =    -0.00199203    0.00024422   -0.00546443
     atom   75 type  3   force =     0.00078451   -0.00184726   -0.00546443
     atom   76 type  3   force =     0.00120752   -0.00160304    0.00546443
     atom   77 type  3   force =     0.00078451    0.00184726    0.00546443
     atom   78 type  3   force =    -0.00199203   -0.00024422    0.00546443
     atom   79 type  3   force =     0.00008123    0.00017907    0.00005109
     atom   80 type  3   force =    -0.00019570   -0.00001918    0.00005109
     atom   81 type  3   force =     0.00011446   -0.00015989    0.00005109
     atom   82 type  3   force =     0.00008123   -0.00017907   -0.00005109
     atom   83 type  3   force =     0.00011446    0.00015989   -0.00005109
     atom   84 type  3   force =    -0.00019570    0.00001918   -0.00005109
     atom   85 type  3   force =    -0.00070150   -0.00044407    0.00060806
     atom   86 type  3   force =     0.00073533   -0.00038548    0.00060806
     atom   87 type  3   force =    -0.00003383    0.00082956    0.00060806
     atom   88 type  3   force =    -0.00070150    0.00044407   -0.00060806
     atom   89 type  3   force =    -0.00003383   -0.00082956   -0.00060806
     atom   90 type  3   force =     0.00073533    0.00038548   -0.00060806
     atom   91 type  3   force =     0.00017085   -0.00014080   -0.00011574
     atom   92 type  3   force =     0.00003651    0.00021836   -0.00011574
     atom   93 type  3   force =    -0.00020736   -0.00007756   -0.00011574
     atom   94 type  3   force =     0.00017085    0.00014080    0.00011574
     atom   95 type  3   force =    -0.00020736    0.00007756    0.00011574
     atom   96 type  3   force =     0.00003651   -0.00021836    0.00011574
     atom   97 type  3   force =    -0.00062634   -0.00005187   -0.00073301
     atom   98 type  3   force =     0.00035809   -0.00051649   -0.00073301
     atom   99 type  3   force =     0.00026825    0.00056836   -0.00073301
     atom  100 type  3   force =    -0.00062634    0.00005187    0.00073301
     atom  101 type  3   force =     0.00026825   -0.00056836    0.00073301
     atom  102 type  3   force =     0.00035809    0.00051649    0.00073301
     atom  103 type  3   force =     0.00035788    0.00065627    0.00010871
     atom  104 type  3   force =    -0.00074728   -0.00001820    0.00010871
     atom  105 type  3   force =     0.00038941   -0.00063807    0.00010871
     atom  106 type  3   force =     0.00035788   -0.00065627   -0.00010871
     atom  107 type  3   force =     0.00038941    0.00063807   -0.00010871
     atom  108 type  3   force =    -0.00074728    0.00001820   -0.00010871
     atom  109 type  3   force =    -0.00016609    0.00085509   -0.00007654
     atom  110 type  3   force =    -0.00065749   -0.00057139   -0.00007654
     atom  111 type  3   force =     0.00082358   -0.00028371   -0.00007654
     atom  112 type  3   force =    -0.00016609   -0.00085509    0.00007654
     atom  113 type  3   force =     0.00082358    0.00028371    0.00007654
     atom  114 type  3   force =    -0.00065749    0.00057139    0.00007654
     atom  115 type  3   force =    -0.00027265    0.00020914   -0.00013731
     atom  116 type  3   force =    -0.00004479   -0.00034069   -0.00013731
     atom  117 type  3   force =     0.00031744    0.00013156   -0.00013731
     atom  118 type  3   force =    -0.00027265   -0.00020914    0.00013731
     atom  119 type  3   force =     0.00031744   -0.00013156    0.00013731
     atom  120 type  3   force =    -0.00004479    0.00034069    0.00013731
     atom  121 type  3   force =    -0.00001749   -0.00010246   -0.00011671
     atom  122 type  3   force =     0.00009748    0.00003608   -0.00011671
     atom  123 type  3   force =    -0.00007999    0.00006638   -0.00011671
     atom  124 type  3   force =    -0.00001749    0.00010246    0.00011671
     atom  125 type  3   force =    -0.00007999   -0.00006638    0.00011671
     atom  126 type  3   force =     0.00009748   -0.00003608    0.00011671
     atom  127 type  4   force =     0.00089070    0.00467993    0.00044114
     atom  128 type  4   force =    -0.00449829   -0.00156859    0.00044114
     atom  129 type  4   force =     0.00360759   -0.00311133    0.00044114
     atom  130 type  4   force =     0.00089070   -0.00467993   -0.00044114
     atom  131 type  4   force =     0.00360759    0.00311133   -0.00044114
     atom  132 type  4   force =    -0.00449829    0.00156859   -0.00044114
     atom  133 type  4   force =    -0.00208100    0.00309014   -0.00031478
     atom  134 type  4   force =    -0.00163564   -0.00334727   -0.00031478
     atom  135 type  4   force =     0.00371664    0.00025713   -0.00031478
     atom  136 type  4   force =    -0.00208100   -0.00309014    0.00031478
     atom  137 type  4   force =     0.00371664   -0.00025713    0.00031478
     atom  138 type  4   force =    -0.00163564    0.00334727    0.00031478
     atom  139 type  4   force =     0.00210417   -0.00079187    0.00084273
     atom  140 type  4   force =    -0.00036631    0.00221820    0.00084273
     atom  141 type  4   force =    -0.00173786   -0.00142633    0.00084273
     atom  142 type  4   force =     0.00210417    0.00079187   -0.00084273
     atom  143 type  4   force =    -0.00173786    0.00142633   -0.00084273
     atom  144 type  4   force =    -0.00036631   -0.00221820   -0.00084273
     atom  145 type  4   force =    -0.00091731   -0.00154688    0.00072836
     atom  146 type  4   force =     0.00179829   -0.00002097    0.00072836
     atom  147 type  4   force =    -0.00088098    0.00156785    0.00072836
     atom  148 type  4   force =    -0.00091731    0.00154688   -0.00072836
     atom  149 type  4   force =    -0.00088098   -0.00156785   -0.00072836
     atom  150 type  4   force =     0.00179829    0.00002097   -0.00072836
     atom  151 type  4   force =     0.00054264   -0.00169841   -0.00025520
     atom  152 type  4   force =     0.00119954    0.00131914   -0.00025520
     atom  153 type  4   force =    -0.00174218    0.00037927   -0.00025520
     atom  154 type  4   force =     0.00054264    0.00169841    0.00025520
     atom  155 type  4   force =    -0.00174218   -0.00037927    0.00025520
     atom  156 type  4   force =     0.00119954   -0.00131914    0.00025520
     atom  157 type  4   force =    -0.00037444    0.00132986   -0.00001639
     atom  158 type  4   force =    -0.00096447   -0.00098921   -0.00001639
     atom  159 type  4   force =     0.00133891   -0.00034065   -0.00001639
     atom  160 type  4   force =    -0.00037444   -0.00132986    0.00001639
     atom  161 type  4   force =     0.00133891    0.00034065    0.00001639
     atom  162 type  4   force =    -0.00096447    0.00098921    0.00001639
     atom  163 type  4   force =    -0.00086019    0.00222282    0.00129075
     atom  164 type  4   force =    -0.00149492   -0.00185636    0.00129075
     atom  165 type  4   force =     0.00235511   -0.00036646    0.00129075
     atom  166 type  4   force =    -0.00086019   -0.00222282   -0.00129075
     atom  167 type  4   force =     0.00235511    0.00036646   -0.00129075
     atom  168 type  4   force =    -0.00149492    0.00185636   -0.00129075
     atom  169 type  4   force =    -0.00307924   -0.00131267   -0.00672644
     atom  170 type  4   force =     0.00267642   -0.00201036   -0.00672644
     atom  171 type  4   force =     0.00040281    0.00332303   -0.00672644
     atom  172 type  4   force =    -0.00307924    0.00131267    0.00672644
     atom  173 type  4   force =     0.00040281   -0.00332303    0.00672644
     atom  174 type  4   force =     0.00267642    0.00201036    0.00672644
     atom  175 type  4   force =    -0.00029326   -0.00216962   -0.00349409
     atom  176 type  4   force =     0.00202557    0.00083084   -0.00349409
     atom  177 type  4   force =    -0.00173232    0.00133878   -0.00349409
     atom  178 type  4   force =    -0.00029326    0.00216962    0.00349409
     atom  179 type  4   force =    -0.00173232   -0.00133878    0.00349409
     atom  180 type  4   force =     0.00202557   -0.00083084    0.00349409
     atom  181 type  4   force =     0.00422507    0.00123979    0.00527464
     atom  182 type  4   force =    -0.00318622    0.00303912    0.00527464
     atom  183 type  4   force =    -0.00103884   -0.00427891    0.00527464
     atom  184 type  4   force =     0.00422507   -0.00123979   -0.00527464
     atom  185 type  4   force =    -0.00103884    0.00427891   -0.00527464
     atom  186 type  4   force =    -0.00318622   -0.00303912   -0.00527464
     atom  187 type  4   force =     0.00059858    0.00218568    0.00366127
     atom  188 type  4   force =    -0.00219214   -0.00057445    0.00366127
     atom  189 type  4   force =     0.00159356   -0.00161122    0.00366127
     atom  190 type  4   force =     0.00059858   -0.00218568   -0.00366127
     atom  191 type  4   force =     0.00159356    0.00161122   -0.00366127
     atom  192 type  4   force =    -0.00219214    0.00057445   -0.00366127
     atom  193 type  4   force =     0.00260761    0.00189348   -0.00533925
     atom  194 type  4   force =    -0.00294361    0.00131152   -0.00533925
     atom  195 type  4   force =     0.00033599   -0.00320500   -0.00533925
     atom  196 type  4   force =     0.00260761   -0.00189348    0.00533925
     atom  197 type  4   force =     0.00033599    0.00320500    0.00533925
     atom  198 type  4   force =    -0.00294361   -0.00131152    0.00533925
     atom  199 type  4   force =    -0.00070278   -0.00006583    0.00007042
     atom  200 type  4   force =     0.00040840   -0.00057571    0.00007042
     atom  201 type  4   force =     0.00029438    0.00064154    0.00007042
     atom  202 type  4   force =    -0.00070278    0.00006583   -0.00007042
     atom  203 type  4   force =     0.00029438   -0.00064154   -0.00007042
     atom  204 type  4   force =     0.00040840    0.00057571   -0.00007042
     atom  205 type  5   force =    -0.00272461   -0.00166034    0.00814729
     atom  206 type  5   force =     0.00280020   -0.00152942    0.00814729
     atom  207 type  5   force =    -0.00007559    0.00318975    0.00814729
     atom  208 type  5   force =    -0.00272461    0.00166034   -0.00814729
     atom  209 type  5   force =    -0.00007559   -0.00318975   -0.00814729
     atom  210 type  5   force =     0.00280020    0.00152942   -0.00814729
     atom  211 type  5   force =    -0.00000569   -0.00022470   -0.00055890
     atom  212 type  5   force =     0.00019745    0.00010742   -0.00055890
     atom  213 type  5   force =    -0.00019175    0.00011728   -0.00055890
     atom  214 type  5   force =    -0.00000569    0.00022470    0.00055890
     atom  215 type  5   force =    -0.00019175   -0.00011728    0.00055890
     atom  216 type  5   force =     0.00019745   -0.00010742    0.00055890

     Total force =     0.055060     Total SCF correction =     0.000410

     BFGS Geometry Optimization
     Energy error            =      3.0E-03 Ry
     Gradient error          =      8.1E-03 Ry/Bohr

     number of scf cycles    =   1
     number of bfgs steps    =   0

     energy             new  =   -2833.9165484762 Ry

     new trust radius        =       0.0087497783 bohr
     new conv_thr            =       0.0000001000 Ry


ATOMIC_POSITIONS (angstrom)
Mg              10.2314554654        5.4294815688        5.8300537201
Mg              12.1358732994        6.1459595664        1.1572137201
Mg              10.5631762352        7.4369947913        3.4936337201
Mg              -0.7453795346       13.5829543575        5.8520462799
Mg              -0.4136587648       11.5754411350        1.1792062799
Mg               1.1590382994       12.8664763599        3.5156262799
O               11.4388038305        4.4604821205        0.1831918712
O               12.3713772553        7.6760536459        2.5196118712
O                9.1203239142        6.8759001599        4.8560318712
O                0.4619688306       14.5519538058        4.4896481288
O               -1.8565110858       12.1365357664        6.8260681288
O                1.3945422553       11.3363822804        2.1532281288
O               10.8176936519        5.4827253024        2.6562627750
O               11.7966437803        6.6270348616        4.9926827750
O               10.3161675679        6.9026757623        0.3198427750
O               -0.1591413481       13.5297106239        2.0165772250
O               -0.6606674321       12.1097601640        4.3529972250
O                0.8198087803       12.3854010647        6.6894172250
O               10.2357780030        4.0569139844        4.2798799036
O               13.3223904270        6.8359867859        6.6162999036
O                9.3723365701        8.1195351560        1.9434599036
O               -0.7410569970       14.9555219419        0.3929600964
O               -1.6044984299       10.8929007703        2.7293800964
O                2.3455554270       12.1764491404        5.0658000964
H               10.5668619403        1.7586811790        3.7768498525
H               15.1471764517        8.2718302891        6.1132698525
H                7.2164666080        8.9819244582        1.4404298525
H               -0.4099730597       17.2537547473        0.8959901475
H               -3.7603683920       10.0305114681        3.2324101475
H                4.1703414517       10.7406056372        5.5688301475
H                0.8055828695       18.9793830358        0.0620184120
H               -5.8625842919       10.2203996382        2.3984384120
H                5.0570014224        8.8250891786        4.7348584120
H               11.7824178694        0.0330528905        4.6108215880
H               16.0338364224       10.1873467477        6.9472415880
H                5.1142507081        8.7920362881        2.2744015880
H               11.8848418238        2.2053592686        6.0368605508
H               14.1013519370        9.1898953052        1.3640205508
H                6.9443112391        7.6171813525        3.7004405508
H                0.9080068239       16.8070766577        5.6452394492
H               -4.0325237609       11.3952545738        0.9723994492
H                3.1245169370        9.8225406211        3.3088194492
H                2.7233964057       15.5480761792        1.4787393945
H               -3.8498921540       13.5969283086        3.8151593945
H                1.1264957484        8.8798673648        6.1515793945
H               13.7002314057        3.4643597471        3.1941006055
H               12.1033307483       10.1325685615        5.5305206055
H                7.1269428460        5.4155076177        0.8576806055
H                3.6236166197       14.1521411340        5.8999940697
H               -3.0910870499       15.0745094054        1.2271540697
H               -0.5325295698        8.7982213130        3.5635740697
H               14.6004516197        4.8602947923        5.7821059303
H               10.4443054302       10.2142146133        1.1092659303
H                7.8857479501        3.9379265209        3.4456859303
H                6.0023763962       13.6433417554        5.6219221197
H               -3.8398337508       17.3889754908        0.9490821197
H               -2.1625426453        6.9925546064        3.2855021197
H               16.9792113962        5.3690941709        6.0601778803
H                8.8142923547       12.0198813199        1.3873378803
H                7.1370012491        1.6234604355        3.7237578803
H                5.4036234256       14.9014119786        4.5236627182
H               -4.6299780386       16.2414050961        6.8600827182
H               -0.7736453870        6.8820547779        2.1872427182
H               16.3804584256        4.1110239477        0.1491772818
H               10.2031896130       12.1303811484        2.4855972818
H                6.3468569614        2.7710308302        4.8220172818
H                5.0331480562       16.4266095985        1.3765102348
H               -5.7656002384       15.1579652047        3.7129302348
H                0.7324521822        6.4402970494        6.0493502348
H               16.0099830561        2.5858263278        3.2963297652
H               11.7092871822       12.5721388769        5.6327497652
H                5.2112347616        3.8544707216        0.9599097652
H                5.5859819447       15.1425423868        2.4595314773
H               -4.9299823571       16.2787670021        4.7959514773
H               -0.6559995875        6.6035624638        0.1231114773
H               16.5628169446        3.8698935395        2.2133085227
H               10.3208354125       12.4088734625        4.5497285227
H                6.0468526429        2.7336689242        6.8861485227
H                7.2649514639       14.3970717403        0.8077040668
H               -5.1238705992       18.1055325811        3.1441240668
H               -2.1410808647        5.5222675312        5.4805440668
H               18.2417864639        4.6153641860        3.8651359332
H                8.8357541353       13.4901683951        6.2015559332
H                5.8529644008        0.9069033452        1.5287159332
H                7.4965875483       16.1185081851        1.1010559607
H               -6.7304963335       17.4454170922        3.4374759607
H               -0.7660912147        4.4609465753        5.7738959607
H               18.4734225483        2.8939277412        3.5717840393
H               10.2107437853       14.5514893510        5.9082040393
H                4.2463386665        1.5670188341        1.2353640393
H                6.2503002596       16.6749725460        6.0194211498
H               -6.5892649620       16.0878684594        1.3465811498
H                0.3389647025        5.2620308472        3.6830011498
H               17.2271352596        2.3374633803        5.6626788502
H               11.3157997025       13.7504050791        0.9898388502
H                4.3875700380        2.9245674669        3.3262588502
H                7.5685255937       15.5580389945        5.6416458544
H               -6.2810847990       17.7879518623        0.9688058544
H               -1.2874407946        4.6788809958        3.3052258544
H               18.5453605937        3.4543969318        6.0404541456
H                9.6893942054       14.3335549305        1.3676141456
H                4.6957502010        1.2244840640        3.7040341456
H                2.3399017614       13.9784803000        0.7872675176
H               -2.2988349267       14.0496101440        3.1236875176
H               -0.0410668346        9.9967814087        5.4601075176
H               13.3167367613        5.0339556263        3.8855724824
H               10.9357681654        9.0156545176        6.2219924824
H                8.6780000732        4.9628257823        1.5491524824
H                4.8356469983       13.4137260419        0.8697385680
H               -3.0576160108       16.4933660496        3.2061585680
H               -1.7780309875        8.1177797611        5.5425785680
H               15.8124819983        5.5987098844        3.8031014320
H                9.1988040125       10.8946561652        6.1395214320
H                7.9192189892        2.5190698767        1.4666814320
H                3.6972928186       13.1540545898        2.8552895849
H               -2.2635568467       15.6373581376        5.1917095849
H               -1.4337359718        9.2334591253        0.5188695849
H               14.6741278186        5.8583813365        1.8175504151
H                9.5430990282        9.7789768010        4.1539704151
H                8.7132781533        3.3750777887        6.4903904151
H                3.2889798150       14.6043484372        3.4789143467
H               -3.3153916599       14.5586017800        5.8153343467
H                0.0264118449        8.8619216354        1.1424943467
H               14.2658148149        4.4080874891        1.1939256533
H               11.0032468449       10.1505142909        3.5303456533
H                7.6614433401        4.4538341463        5.8667656533
C               11.3166003087        3.2781290964        0.7994993581
C               13.4564267713        8.1613988035        3.1359193581
C                8.1574779201        7.5729080263        5.4723393581
C                0.3397653087       15.7343068299        3.8733406419
C               -2.8193570799       11.4395279000        6.2097606419
C                2.4795917713       10.8510371228        1.5369206419
C               10.9509261326        3.1268994486        2.1843393953
C               13.7702325761        7.9203305016        4.5207593953
C                8.2093462913        7.9652059762        6.8571793953
C               -0.0259088674       15.8855364777        2.4885006047
C               -2.7674887087       11.0472299501        4.8249206047
C                2.7933975761       11.0921054247        0.1520806047
C               10.8698266526        1.8299081684        2.7399451322
C               14.9340097132        8.4985919317        5.0763651322
C                7.1266686342        8.6839358262        0.4035251322
C               -0.1070083473       17.1825277579        1.9328948678
C               -3.8501663658       10.3285001001        4.2693148678
C                3.9571747132       10.5138439946        6.6057348678
C               11.1640534602        0.6707006634        2.0156878666
C               15.7907994571        9.3330035740        4.3521078666
C                5.9756520828        9.0087316889        6.6885278666
C                0.1872184602       18.3417352629        2.6571521334
C               -5.0011829172       10.0037042374        4.9935721334
C                4.8139644571        9.6794323523        0.3207321334
C               11.5177312749        0.8358385471        0.6526373369
C               15.4709469472        9.5567286046        2.9890573369
C                5.9418267778        8.6198687746        5.3254773369
C                0.5408962750       18.1765973792        4.0202026631
C               -5.0350082222       10.3925671517        6.3566226631
C                4.4941119472        9.4557073217        1.6837826631
C               11.5809116207        2.0918815598        0.0628643909
C               14.3515916172        8.9834228827        2.3992843909
C                6.9980017621        7.9371314838        4.7357043909
C                0.6040766208       16.9205543665        4.6099756091
C               -3.9788332379       11.0753044425        6.9463956091
C                3.3747566172       10.0290130436        2.2735556091
C               10.6525631735        4.2793545967        3.0905050269
C               12.9213586207        7.0857130254        5.4269250269
C                9.3565832058        7.6473683043        0.7540850269
C               -0.3242718265       14.7330813296        1.5823349731
C               -1.6202517942       11.3650676220        3.9187549731
C                1.9445236207       11.9267229009        6.2551749731
C                4.4492575935       14.4487566686        0.7473425462
C               -3.7607841249       15.6412276960        3.0837625462
C               -0.6884734687        7.9348874880        5.4201825462
C               15.4260925935        4.5636792577        3.9254974538
C               10.2883615313       11.0775484383        6.2619174538
C                7.2160508751        3.3712082303        1.5890774538
C                5.5903468814       14.6703684422        5.5751388195
C               -4.5232501945       16.5186341205        0.9022988195
C               -1.0670966869        6.8358692900        3.2387188195
C               16.5671818814        4.3420674841        6.1069611805
C                9.9097383131       12.1765666363        1.4341211805
C                6.4535848054        2.4938018058        3.7705411805
C                6.6152300554       15.6522636964        6.1697484444
C               -5.8860380154       16.9152613579        1.4969084444
C               -0.7291920399        5.4573467983        3.8333284444
C               17.5920650553        3.3601722299        5.5123515556
C               10.2476429601       13.5550891280        0.8395115556
C                5.0907969846        2.0971745684        3.1759315556
C                5.4541572241       15.4143482910        1.4079950181
C               -5.0994608148       16.0287004930        3.7444150181
C               -0.3546964092        6.5818230686        6.0808350181
C               16.4309922240        3.5980876353        3.2648449819
C               10.6221385908       12.4306128577        5.6012649819
C                5.8773741852        2.9837354333        0.9284249819
C                6.8077859685       15.3856750127        0.6695729002
C               -5.7514433996       17.2153140121        3.0059929002
C               -1.0563425688        5.4238828278        5.3424129002
C               17.7846209684        3.6267609136        4.0032670998
C                9.9204924311       13.5885530985        6.3396870998
C                5.2253916004        1.7971219142        1.6668470998
C                3.0598599347       14.5108266387        1.4078471355
C               -3.1198394663       14.4069390423        3.7442671355
C                0.0599795318        9.1071061715        6.0806871355
C               14.0366949347        4.5016092876        3.2649928645
C               11.0368145318        9.9053297548        5.6014128645
C                7.8569955337        4.6054968840        0.9285728645
N                4.3094906063       14.7826211913        6.3169210105
N               -3.9800357893       15.3532536730        1.6440810105
N               -0.3294548169        7.8889969883        3.9805010105
N               15.2863256062        4.2298147350        5.3651789895
N               10.6473801831       11.1234389380        0.6923389895
N                6.9967992107        3.6591822533        3.0287589895
N                3.0096256069       13.9093792162        2.7855346299
N               -2.5738535555       14.6641585497        5.1219546299
N               -0.4357720513        9.4513340867        0.4491146299
N               13.9864606069        5.1030567101        1.8873053701
N               10.5410629487        9.5611018396        4.2237253701
N                8.4029814445        4.3482773766        6.5601453701



     Writing config-only to output data dir ./tmp/a_MOF.save/ :
     XML data file
     NEW-OLD atomic charge density approx. for the potential

     Check: negative core charge=   -0.000001

     negative rho (up, down):  1.291E-04 0.000E+00

     total cpu time spent up to now is     1332.1 secs

     per-process dynamical memory:   358.3 Mb

     Self-consistent Calculation

     iteration #  1     ecut=    60.00 Ry     beta= 0.30
     Davidson diagonalization with overlap
     ethr =  1.00E-06,  avg # of iterations =  3.0

     negative rho (up, down):  1.293E-04 0.000E+00

     total cpu time spent up to now is     1430.5 secs

     total energy              =   -2833.91772671 Ry
     estimated scf accuracy    <       0.00061737 Ry

     iteration #  2     ecut=    60.00 Ry     beta= 0.30
     Davidson diagonalization with overlap
     ethr =  1.04E-07,  avg # of iterations =  2.0

     negative rho (up, down):  1.295E-04 0.000E+00

     total cpu time spent up to now is     1500.6 secs

     total energy              =   -2833.91768843 Ry
     estimated scf accuracy    <       0.00023101 Ry

     iteration #  3     ecut=    60.00 Ry     beta= 0.30
     Davidson diagonalization with overlap
     ethr =  3.89E-08,  avg # of iterations =  3.5

     negative rho (up, down):  1.295E-04 0.000E+00

     total cpu time spent up to now is     1578.7 secs

     total energy              =   -2833.91774198 Ry
     estimated scf accuracy    <       0.00002338 Ry

     iteration #  4     ecut=    60.00 Ry     beta= 0.30
     Davidson diagonalization with overlap
     ethr =  3.94E-09,  avg # of iterations =  5.0

     negative rho (up, down):  1.295E-04 0.000E+00

     total cpu time spent up to now is     1658.3 secs

     total energy              =   -2833.91774393 Ry
     estimated scf accuracy    <       0.00000932 Ry

     iteration #  5     ecut=    60.00 Ry     beta= 0.30
     Davidson diagonalization with overlap
     ethr =  1.57E-09,  avg # of iterations =  4.5

     negative rho (up, down):  1.295E-04 0.000E+00

     total cpu time spent up to now is     1738.1 secs

     total energy              =   -2833.91774634 Ry
     estimated scf accuracy    <       0.00000315 Ry

     iteration #  6     ecut=    60.00 Ry     beta= 0.30
     Davidson diagonalization with overlap
     ethr =  5.30E-10,  avg # of iterations =  2.5

     negative rho (up, down):  1.295E-04 0.000E+00

     total cpu time spent up to now is     1807.6 secs

     total energy              =   -2833.91774646 Ry
     estimated scf accuracy    <       0.00000082 Ry

     iteration #  7     ecut=    60.00 Ry     beta= 0.30
     Davidson diagonalization with overlap
     ethr =  1.39E-10,  avg # of iterations =  7.0

     negative rho (up, down):  1.295E-04 0.000E+00

     total cpu time spent up to now is     1911.2 secs

     total energy              =   -2833.91774665 Ry
     estimated scf accuracy    <       0.00000141 Ry

     iteration #  8     ecut=    60.00 Ry     beta= 0.30
     Davidson diagonalization with overlap
     ethr =  1.39E-10,  avg # of iterations =  5.0

     negative rho (up, down):  1.295E-04 0.000E+00

     total cpu time spent up to now is     1991.0 secs

     End of self-consistent calculation

          k = 0.0000 0.0000 0.0000 (154911 PWs)   bands (ev):

   -22.4814 -22.4814 -22.3385 -22.3385 -22.3385 -22.3385 -20.5485 -20.5482
   -20.5339 -20.5339 -20.5334 -20.5334 -20.0540 -20.0537 -20.0377 -20.0377
   -20.0375 -20.0375 -18.7364 -18.7364 -18.7352 -18.7352 -18.7337 -18.7325
   -18.1581 -18.1581 -18.1567 -18.1567 -18.1552 -18.1538 -17.1114 -17.1027
   -17.1027 -16.4646 -16.4432 -16.4432 -15.4296 -15.4296 -15.4296 -15.3674
   -15.3674 -15.3672 -14.8174 -14.8116 -14.8116 -14.8079 -14.8072 -14.8072
   -14.6903 -14.6333 -14.6333 -14.5232 -14.5141 -14.5141 -14.2903 -14.2903
   -14.2801 -13.1319 -13.0562 -13.0562 -12.7661 -12.7661 -12.7594 -12.7514
   -12.7514 -12.7476 -11.7221 -11.7221 -11.7205 -11.6805 -11.6805 -11.6783
   -11.6579 -11.6579 -11.6415 -11.2723 -11.2723 -11.2410 -10.8114 -10.8114
   -10.8054 -10.7980 -10.7853 -10.7853 -10.7724 -10.6836 -10.6836 -10.3668
   -10.3668 -10.3226  -9.8302  -9.7788  -9.7739  -9.7739  -9.7342  -9.7294
    -9.7294  -9.5489  -9.5489  -9.4814  -8.9751  -8.9751  -8.7867  -8.7796
    -8.7694  -8.7694  -8.7531  -8.7531  -8.6053  -8.6053  -8.5071  -8.4580
    -8.4580  -8.4339  -8.3954  -8.3826  -8.3826  -8.1082  -8.1082  -7.9193
    -7.7794  -7.7794  -7.7771  -7.6983  -7.6983  -7.6325  -7.5464  -7.5464
    -7.4956  -7.4451  -7.4410  -7.4410  -7.4149  -7.4149  -7.3251  -7.3165
    -7.3165  -7.3111  -7.2605  -7.2605  -7.1650  -7.1609  -7.1570  -7.1570
    -7.0878  -7.0878  -6.9973  -6.9939  -6.9939  -6.9337  -6.9337  -6.7880
    -6.7326  -6.6785  -6.6785  -6.6278  -6.6078  -6.6078  -6.5957  -6.5824
    -6.5824  -6.5476  -6.5476  -6.5269  -6.5050  -6.4042  -6.3788  -6.2761
    -6.2761  -6.2604  -6.2604  -6.1789  -6.1789  -6.1639  -6.1479  -6.1479
    -6.1215  -6.0915  -6.0915  -6.0542  -6.0097  -6.0097  -5.9902  -5.7400
    -5.7257  -5.7212  -5.7212  -5.7133  -5.7133  -5.6154  -5.6154  -5.5061
    -5.4963  -5.4963  -5.4917  -5.4142  -5.4142  -5.3925  -5.3520  -5.3285
    -5.3285  -5.3085  -5.3045  -5.3045  -5.1880  -5.1633  -5.1633  -5.1180
    -5.1131  -5.1131  -5.0043  -5.0043  -4.9901  -4.8455  -4.8455  -4.7381
    -4.5319  -4.5319  -4.4716  -4.4716  -4.4516  -4.4393  -4.3763  -4.3638
    -4.3638  -4.3005  -4.3005  -4.2597  -4.2256  -4.2256  -4.2207  -4.2025
    -4.1755  -4.1755  -4.0417  -4.0417  -4.0312  -4.0247  -3.9875  -3.9875
    -3.9439  -3.9439  -3.8829  -3.8809  -3.8223  -3.8199  -3.8199  -3.7077
    -3.6821  -3.6821  -3.4814  -3.4814  -3.4667  -3.4667  -3.4389  -3.1768
    -3.1768  -3.1138  -3.0933  -3.0822  -3.0822  -2.8609  -2.8609  -2.7880
    -2.7880  -2.6502  -2.6457  -2.5527  -2.5527  -2.5459  -2.5459  -2.4862
    -2.4784  -2.2184  -2.2184  -2.2062  -2.2062  -2.1814  -2.1706  -2.0102
    -2.0102  -1.9809  -1.9809  -1.8336  -1.8312  -1.6136  -1.6136  -1.5420
    -1.4025  -1.3991  -1.3991  -1.3611  -1.3611  -1.3598  -0.7083  -0.7083
    -0.6307

          k = 0.0000 0.0000-1.5660 (154844 PWs)   bands (ev):

   -22.4215 -22.4215 -22.4215 -22.4215 -22.3071 -22.3071 -20.5801 -20.5801
   -20.5798 -20.5798 -20.5200 -20.5195 -20.0328 -20.0328 -20.0324 -20.0324
   -20.0096 -20.0095 -18.7000 -18.6989 -18.6969 -18.6969 -18.6957 -18.6957
   -18.2108 -18.2094 -18.2068 -18.2068 -18.2055 -18.2055 -17.0924 -17.0924
   -17.0920 -16.4528 -16.4528 -16.4502 -15.4247 -15.4247 -15.4247 -15.3626
   -15.3625 -15.3625 -14.8085 -14.8085 -14.8082 -14.8047 -14.8045 -14.8045
   -14.6491 -14.6491 -14.6341 -14.5660 -14.5660 -14.5611 -14.2817 -14.2817
   -14.2750 -13.0946 -13.0946 -13.0649 -12.7755 -12.7698 -12.7698 -12.7625
   -12.7563 -12.7563 -11.6907 -11.6907 -11.6464 -11.6423 -11.6398 -11.6398
   -11.5878 -11.5828 -11.5828 -11.2274 -11.2274 -11.1670 -10.8431 -10.8409
   -10.8409 -10.8173 -10.8145 -10.8145 -10.6964 -10.6964 -10.6254 -10.3707
   -10.3707 -10.3363  -9.7922  -9.7922  -9.7826  -9.7517  -9.7517  -9.7394
    -9.7383  -9.7383  -9.5732  -9.3005  -9.3005  -8.9190  -8.8581  -8.8581
    -8.8553  -8.8553  -8.8210  -8.8151  -8.5409  -8.4406  -8.4406  -8.2285
    -8.2285  -8.2141  -8.1481  -8.1481  -8.1417  -8.0479  -7.9993  -7.9993
    -7.9330  -7.9330  -7.8663  -7.6891  -7.6010  -7.6010  -7.5464  -7.5401
    -7.5401  -7.5062  -7.4884  -7.4884  -7.4158  -7.4097  -7.3651  -7.3651
    -7.3517  -7.2893  -7.2893  -7.2702  -7.2470  -7.2470  -7.2048  -7.2048
    -7.0396  -7.0074  -6.9530  -6.9530  -6.8546  -6.8546  -6.8227  -6.7329
    -6.7329  -6.7199  -6.6687  -6.6687  -6.6433  -6.5982  -6.5714  -6.5714
    -6.5427  -6.5427  -6.4923  -6.4923  -6.4821  -6.4590  -6.4023  -6.4023
    -6.3759  -6.3759  -6.3537  -6.3537  -6.3247  -6.2820  -6.2778  -6.2778
    -6.2181  -6.2044  -6.2044  -6.2011  -6.2011  -6.1838  -6.1188  -6.1073
    -6.0570  -6.0570  -5.9398  -5.9067  -5.9067  -5.6442  -5.6442  -5.6295
    -5.5819  -5.4974  -5.4974  -5.4638  -5.4638  -5.4103  -5.3818  -5.3818
    -5.3730  -5.3291  -5.3001  -5.3001  -5.1558  -5.1536  -5.1536  -5.1056
    -5.1056  -5.1016  -4.8229  -4.8229  -4.8160  -4.7675  -4.7675  -4.6882
    -4.6020  -4.5072  -4.4813  -4.4813  -4.4600  -4.4600  -4.3529  -4.3529
    -4.3520  -4.2190  -4.2190  -4.2128  -4.1868  -4.1868  -4.1643  -4.1591
    -4.1545  -4.1545  -4.0496  -4.0123  -4.0123  -3.9759  -3.9759  -3.9075
    -3.9022  -3.7758  -3.6872  -3.6579  -3.6579  -3.5188  -3.5188  -3.5147
    -3.5063  -3.5063  -3.4954  -3.4501  -3.4501  -3.3744  -3.3744  -3.1116
    -3.0281  -3.0169  -3.0169  -2.9919  -2.9919  -2.9009  -2.8562  -2.8562
    -2.8191  -2.8191  -2.8038  -2.5290  -2.5243  -2.4919  -2.4919  -2.4845
    -2.4845  -2.2815  -2.2473  -2.2473  -2.2037  -2.1606  -2.1606  -2.0250
    -2.0250  -2.0114  -2.0114  -2.0043  -1.9705  -1.5979  -1.5979  -1.5399
    -1.3957  -1.3957  -1.3868  -1.3618  -1.3618  -1.3565  -0.6863  -0.6679
    -0.6679

     highest occupied level (ev):    -0.6307

!    total energy              =   -2833.91774680 Ry
     estimated scf accuracy    <       0.00000006 Ry

     The total energy is the sum of the following terms:
     one-electron contribution =   -6464.76345262 Ry
     hartree contribution      =    3420.77188887 Ry
     xc contribution           =    -673.78076484 Ry
     ewald contribution        =    1776.83095296 Ry
     one-center paw contrib.   =    -892.97637116 Ry

     convergence has been achieved in   8 iterations

     negative rho (up, down):  1.295E-04 0.000E+00

     Forces acting on atoms (cartesian axes, Ry/au):

     atom    1 type  1   force =    -0.00074689   -0.00081238   -0.00077004
     atom    2 type  1   force =     0.00107698   -0.00024064   -0.00077004
     atom    3 type  1   force =    -0.00033009    0.00105301   -0.00077004
     atom    4 type  1   force =    -0.00074689    0.00081238    0.00077004
     atom    5 type  1   force =    -0.00033009   -0.00105301    0.00077004
     atom    6 type  1   force =     0.00107698    0.00024064    0.00077004
     atom    7 type  2   force =     0.00211543    0.00201214   -0.00234771
     atom    8 type  2   force =    -0.00280028    0.00082595   -0.00234771
     atom    9 type  2   force =     0.00068485   -0.00283809   -0.00234771
     atom   10 type  2   force =     0.00211543   -0.00201214    0.00234771
     atom   11 type  2   force =     0.00068485    0.00283809    0.00234771
     atom   12 type  2   force =    -0.00280028   -0.00082595    0.00234771
     atom   13 type  2   force =     0.00014570    0.00311469   -0.00157902
     atom   14 type  2   force =    -0.00277025   -0.00143117   -0.00157902
     atom   15 type  2   force =     0.00262456   -0.00168352   -0.00157902
     atom   16 type  2   force =     0.00014570   -0.00311469    0.00157902
     atom   17 type  2   force =     0.00262456    0.00168352    0.00157902
     atom   18 type  2   force =    -0.00277025    0.00143117    0.00157902
     atom   19 type  2   force =    -0.00110718    0.00037239    0.00267760
     atom   20 type  2   force =     0.00023109   -0.00114504    0.00267760
     atom   21 type  2   force =     0.00087609    0.00077265    0.00267760
     atom   22 type  2   force =    -0.00110718   -0.00037239   -0.00267760
     atom   23 type  2   force =     0.00087609   -0.00077265   -0.00267760
     atom   24 type  2   force =     0.00023109    0.00114504   -0.00267760
     atom   25 type  3   force =     0.00047134   -0.00005834   -0.00011547
     atom   26 type  3   force =    -0.00018515    0.00043736   -0.00011547
     atom   27 type  3   force =    -0.00028619   -0.00037903   -0.00011547
     atom   28 type  3   force =     0.00047134    0.00005834    0.00011547
     atom   29 type  3   force =    -0.00028619    0.00037903    0.00011547
     atom   30 type  3   force =    -0.00018515   -0.00043736    0.00011547
     atom   31 type  3   force =     0.00032479   -0.00072412   -0.00034171
     atom   32 type  3   force =     0.00046471    0.00064334   -0.00034171
     atom   33 type  3   force =    -0.00078950    0.00008079   -0.00034171
     atom   34 type  3   force =     0.00032479    0.00072412    0.00034171
     atom   35 type  3   force =    -0.00078950   -0.00008079    0.00034171
     atom   36 type  3   force =     0.00046471   -0.00064334    0.00034171
     atom   37 type  3   force =    -0.00101963    0.00045046    0.00032536
     atom   38 type  3   force =     0.00011971   -0.00110825    0.00032536
     atom   39 type  3   force =     0.00089992    0.00065779    0.00032536
     atom   40 type  3   force =    -0.00101963   -0.00045046   -0.00032536
     atom   41 type  3   force =     0.00089992   -0.00065779   -0.00032536
     atom   42 type  3   force =     0.00011971    0.00110825   -0.00032536
     atom   43 type  3   force =    -0.00005185   -0.00015830   -0.00008145
     atom   44 type  3   force =     0.00016301    0.00003425   -0.00008145
     atom   45 type  3   force =    -0.00011117    0.00012405   -0.00008145
     atom   46 type  3   force =    -0.00005185    0.00015830    0.00008145
     atom   47 type  3   force =    -0.00011117   -0.00012405    0.00008145
     atom   48 type  3   force =     0.00016301   -0.00003425    0.00008145
     atom   49 type  3   force =    -0.00032253    0.00025685    0.00008804
     atom   50 type  3   force =    -0.00006117   -0.00040774    0.00008804
     atom   51 type  3   force =     0.00038370    0.00015089    0.00008804
     atom   52 type  3   force =    -0.00032253   -0.00025685   -0.00008804
     atom   53 type  3   force =     0.00038370   -0.00015089   -0.00008804
     atom   54 type  3   force =    -0.00006117    0.00040774   -0.00008804
     atom   55 type  3   force =    -0.00025023   -0.00042780   -0.00009595
     atom   56 type  3   force =     0.00049560   -0.00000280   -0.00009595
     atom   57 type  3   force =    -0.00024537    0.00043060   -0.00009595
     atom   58 type  3   force =    -0.00025023    0.00042780    0.00009595
     atom   59 type  3   force =    -0.00024537   -0.00043060    0.00009595
     atom   60 type  3   force =     0.00049560    0.00000280    0.00009595
     atom   61 type  3   force =    -0.00058195    0.00031056    0.00134801
     atom   62 type  3   force =     0.00002203   -0.00065927    0.00134801
     atom   63 type  3   force =     0.00055993    0.00034871    0.00134801
     atom   64 type  3   force =    -0.00058195   -0.00031056   -0.00134801
     atom   65 type  3   force =     0.00055993   -0.00034871   -0.00134801
     atom   66 type  3   force =     0.00002203    0.00065927   -0.00134801
     atom   67 type  3   force =    -0.00015965    0.00069841    0.00004444
     atom   68 type  3   force =    -0.00052502   -0.00048746    0.00004444
     atom   69 type  3   force =     0.00068467   -0.00021095    0.00004444
     atom   70 type  3   force =    -0.00015965   -0.00069841   -0.00004444
     atom   71 type  3   force =     0.00068467    0.00021095   -0.00004444
     atom   72 type  3   force =    -0.00052502    0.00048746   -0.00004444
     atom   73 type  3   force =     0.00179970    0.00024124   -0.00081146
     atom   74 type  3   force =    -0.00110877    0.00143797   -0.00081146
     atom   75 type  3   force =    -0.00069093   -0.00167921   -0.00081146
     atom   76 type  3   force =     0.00179970   -0.00024124    0.00081146
     atom   77 type  3   force =    -0.00069093    0.00167921    0.00081146
     atom   78 type  3   force =    -0.00110877   -0.00143797    0.00081146
     atom   79 type  3   force =     0.00002159    0.00077355   -0.00031597
     atom   80 type  3   force =    -0.00068071   -0.00036808   -0.00031597
     atom   81 type  3   force =     0.00065913   -0.00040547   -0.00031597
     atom   82 type  3   force =     0.00002159   -0.00077355    0.00031597
     atom   83 type  3   force =     0.00065913    0.00040547    0.00031597
     atom   84 type  3   force =    -0.00068071    0.00036808    0.00031597
     atom   85 type  3   force =     0.00029368    0.00014832    0.00054026
     atom   86 type  3   force =    -0.00027529    0.00018017    0.00054026
     atom   87 type  3   force =    -0.00001839   -0.00032849    0.00054026
     atom   88 type  3   force =     0.00029368   -0.00014832   -0.00054026
     atom   89 type  3   force =    -0.00001839    0.00032849   -0.00054026
     atom   90 type  3   force =    -0.00027529   -0.00018017   -0.00054026
     atom   91 type  3   force =     0.00056360   -0.00041070    0.00021602
     atom   92 type  3   force =     0.00007388    0.00069344    0.00021602
     atom   93 type  3   force =    -0.00063748   -0.00028274    0.00021602
     atom   94 type  3   force =     0.00056360    0.00041070   -0.00021602
     atom   95 type  3   force =    -0.00063748    0.00028274   -0.00021602
     atom   96 type  3   force =     0.00007388   -0.00069344   -0.00021602
     atom   97 type  3   force =     0.00042435    0.00015457   -0.00073602
     atom   98 type  3   force =    -0.00034604    0.00029022   -0.00073602
     atom   99 type  3   force =    -0.00007832   -0.00044478   -0.00073602
     atom  100 type  3   force =     0.00042435   -0.00015457    0.00073602
     atom  101 type  3   force =    -0.00007832    0.00044478    0.00073602
     atom  102 type  3   force =    -0.00034604   -0.00029022    0.00073602
     atom  103 type  3   force =    -0.00045308    0.00034469   -0.00007473
     atom  104 type  3   force =    -0.00007197   -0.00056472   -0.00007473
     atom  105 type  3   force =     0.00052505    0.00022003   -0.00007473
     atom  106 type  3   force =    -0.00045308   -0.00034469    0.00007473
     atom  107 type  3   force =     0.00052505   -0.00022003    0.00007473
     atom  108 type  3   force =    -0.00007197    0.00056472    0.00007473
     atom  109 type  3   force =    -0.00018329    0.00020600   -0.00013131
     atom  110 type  3   force =    -0.00008676   -0.00026174   -0.00013131
     atom  111 type  3   force =     0.00027005    0.00005573   -0.00013131
     atom  112 type  3   force =    -0.00018329   -0.00020600    0.00013131
     atom  113 type  3   force =     0.00027005   -0.00005573    0.00013131
     atom  114 type  3   force =    -0.00008676    0.00026174    0.00013131
     atom  115 type  3   force =     0.00003848   -0.00011367   -0.00022315
     atom  116 type  3   force =     0.00007920    0.00009016   -0.00022315
     atom  117 type  3   force =    -0.00011768    0.00002351   -0.00022315
     atom  118 type  3   force =     0.00003848    0.00011367    0.00022315
     atom  119 type  3   force =    -0.00011768   -0.00002351    0.00022315
     atom  120 type  3   force =     0.00007920   -0.00009016    0.00022315
     atom  121 type  3   force =    -0.00013523   -0.00025729   -0.00035734
     atom  122 type  3   force =     0.00029044    0.00001153   -0.00035734
     atom  123 type  3   force =    -0.00015521    0.00024576   -0.00035734
     atom  124 type  3   force =    -0.00013523    0.00025729    0.00035734
     atom  125 type  3   force =    -0.00015521   -0.00024576    0.00035734
     atom  126 type  3   force =     0.00029044   -0.00001153    0.00035734
     atom  127 type  4   force =     0.00017002   -0.00313254    0.00224150
     atom  128 type  4   force =     0.00262785    0.00171351    0.00224150
     atom  129 type  4   force =    -0.00279787    0.00141903    0.00224150
     atom  130 type  4   force =     0.00017002    0.00313254   -0.00224150
     atom  131 type  4   force =    -0.00279787   -0.00141903   -0.00224150
     atom  132 type  4   force =     0.00262785   -0.00171351   -0.00224150
     atom  133 type  4   force =    -0.00132858   -0.00018002    0.00069174
     atom  134 type  4   force =     0.00082019   -0.00106058    0.00069174
     atom  135 type  4   force =     0.00050839    0.00124059    0.00069174
     atom  136 type  4   force =    -0.00132858    0.00018002   -0.00069174
     atom  137 type  4   force =     0.00050839   -0.00124059   -0.00069174
     atom  138 type  4   force =     0.00082019    0.00106058   -0.00069174
     atom  139 type  4   force =     0.00169498    0.00160040   -0.00147541
     atom  140 type  4   force =    -0.00223347    0.00066769   -0.00147541
     atom  141 type  4   force =     0.00053850   -0.00226809   -0.00147541
     atom  142 type  4   force =     0.00169498   -0.00160040    0.00147541
     atom  143 type  4   force =     0.00053850    0.00226809    0.00147541
     atom  144 type  4   force =    -0.00223347   -0.00066769    0.00147541
     atom  145 type  4   force =    -0.00026853    0.00043709   -0.00053355
     atom  146 type  4   force =    -0.00024427   -0.00045110   -0.00053355
     atom  147 type  4   force =     0.00051280    0.00001401   -0.00053355
     atom  148 type  4   force =    -0.00026853   -0.00043709    0.00053355
     atom  149 type  4   force =     0.00051280   -0.00001401    0.00053355
     atom  150 type  4   force =    -0.00024427    0.00045110    0.00053355
     atom  151 type  4   force =    -0.00025045    0.00218294    0.00030821
     atom  152 type  4   force =    -0.00176525   -0.00130837    0.00030821
     atom  153 type  4   force =     0.00201570   -0.00087457    0.00030821
     atom  154 type  4   force =    -0.00025045   -0.00218294   -0.00030821
     atom  155 type  4   force =     0.00201570    0.00087457   -0.00030821
     atom  156 type  4   force =    -0.00176525    0.00130837   -0.00030821
     atom  157 type  4   force =    -0.00082201   -0.00074181    0.00283580
     atom  158 type  4   force =     0.00105343   -0.00034098    0.00283580
     atom  159 type  4   force =    -0.00023142    0.00108279    0.00283580
     atom  160 type  4   force =    -0.00082201    0.00074181   -0.00283580
     atom  161 type  4   force =    -0.00023142   -0.00108279   -0.00283580
     atom  162 type  4   force =     0.00105343    0.00034098   -0.00283580
     atom  163 type  4   force =    -0.00034919   -0.00521491   -0.00097113
     atom  164 type  4   force =     0.00469084    0.00230505   -0.00097113
     atom  165 type  4   force =    -0.00434165    0.00290986   -0.00097113
     atom  166 type  4   force =    -0.00034919    0.00521491    0.00097113
     atom  167 type  4   force =    -0.00434165   -0.00290986    0.00097113
     atom  168 type  4   force =     0.00469084   -0.00230505    0.00097113
     atom  169 type  4   force =    -0.00023664   -0.00001701    0.00150062
     atom  170 type  4   force =     0.00013305   -0.00019643    0.00150062
     atom  171 type  4   force =     0.00010359    0.00021344    0.00150062
     atom  172 type  4   force =    -0.00023664    0.00001701   -0.00150062
     atom  173 type  4   force =     0.00010359   -0.00021344   -0.00150062
     atom  174 type  4   force =     0.00013305    0.00019643   -0.00150062
     atom  175 type  4   force =     0.00061436    0.00039427    0.00665718
     atom  176 type  4   force =    -0.00064863    0.00033492    0.00665718
     atom  177 type  4   force =     0.00003427   -0.00072919    0.00665718
     atom  178 type  4   force =     0.00061436   -0.00039427   -0.00665718
     atom  179 type  4   force =     0.00003427    0.00072919   -0.00665718
     atom  180 type  4   force =    -0.00064863   -0.00033492   -0.00665718
     atom  181 type  4   force =     0.00016172    0.00012874   -0.00073920
     atom  182 type  4   force =    -0.00019235    0.00007569   -0.00073920
     atom  183 type  4   force =     0.00003063   -0.00020443   -0.00073920
     atom  184 type  4   force =     0.00016172   -0.00012874    0.00073920
     atom  185 type  4   force =     0.00003063    0.00020443    0.00073920
     atom  186 type  4   force =    -0.00019235   -0.00007569    0.00073920
     atom  187 type  4   force =     0.00010643    0.00024042   -0.00537680
     atom  188 type  4   force =    -0.00026143   -0.00002804   -0.00537680
     atom  189 type  4   force =     0.00015500   -0.00021238   -0.00537680
     atom  190 type  4   force =     0.00010643   -0.00024042    0.00537680
     atom  191 type  4   force =     0.00015500    0.00021238    0.00537680
     atom  192 type  4   force =    -0.00026143    0.00002804    0.00537680
     atom  193 type  4   force =     0.00077476    0.00015587    0.00061585
     atom  194 type  4   force =    -0.00052237    0.00059302    0.00061585
     atom  195 type  4   force =    -0.00025239   -0.00074889    0.00061585
     atom  196 type  4   force =     0.00077476   -0.00015587   -0.00061585
     atom  197 type  4   force =    -0.00025239    0.00074889   -0.00061585
     atom  198 type  4   force =    -0.00052237   -0.00059302   -0.00061585
     atom  199 type  4   force =    -0.00038012   -0.00037074   -0.00043010
     atom  200 type  4   force =     0.00051114   -0.00014383   -0.00043010
     atom  201 type  4   force =    -0.00013101    0.00051457   -0.00043010
     atom  202 type  4   force =    -0.00038012    0.00037074    0.00043010
     atom  203 type  4   force =    -0.00013101   -0.00051457    0.00043010
     atom  204 type  4   force =     0.00051114    0.00014383    0.00043010
     atom  205 type  5   force =    -0.00118649   -0.00191125   -0.00117514
     atom  206 type  5   force =     0.00224844   -0.00007190   -0.00117514
     atom  207 type  5   force =    -0.00106195    0.00198315   -0.00117514
     atom  208 type  5   force =    -0.00118649    0.00191125    0.00117514
     atom  209 type  5   force =    -0.00106195   -0.00198315    0.00117514
     atom  210 type  5   force =     0.00224844    0.00007190    0.00117514
     atom  211 type  5   force =    -0.00007459    0.00010961   -0.00020059
     atom  212 type  5   force =    -0.00005763   -0.00011941   -0.00020059
     atom  213 type  5   force =     0.00013222    0.00000980   -0.00020059
     atom  214 type  5   force =    -0.00007459   -0.00010961    0.00020059
     atom  215 type  5   force =     0.00013222   -0.00000980    0.00020059
     atom  216 type  5   force =    -0.00005763    0.00011941    0.00020059

     Total force =     0.034783     Total SCF correction =     0.000711
     Energy error            =      1.2E-03 Ry
     Gradient error          =      6.7E-03 Ry/Bohr

     number of scf cycles    =   2
     number of bfgs steps    =   1

     energy             old  =   -2833.9165484762 Ry
     energy             new  =   -2833.9177468030 Ry

     CASE: energy            _new < energy            _old

     new trust radius        =       0.0046681811 bohr
     new conv_thr            =       0.0000000067 Ry


ATOMIC_POSITIONS (angstrom)
Mg              10.2310127348        5.4290154282        5.8296086715
Mg              12.1364983543        6.1458092207        1.1567686715
Mg              10.5629939109        7.4376112775        3.4931886715
Mg              -0.7458222652       13.5834204981        5.8524913285
Mg              -0.4138410891       11.5748246488        1.1796513285
Mg               1.1596633543       12.8666267056        3.5160713285
O               11.4399763941        4.4606253848        0.1822292206
O               12.3706669030        7.6769974836        2.5186492206
O                9.1198617029        6.8748130579        4.8550692206
O                0.4631413942       14.5518105415        4.4906107794
O               -1.8569732971       12.1376228684        6.8270307794
O                1.3938319030       11.3354384427        2.1541907794
O               10.8175789222        5.4831991698        2.6557338863
O               11.7962907639        6.6266985692        4.9921538863
O               10.3166353140        6.9025381873        0.3193138863
O               -0.1592560778       13.5292367565        2.0171061137
O               -0.6601996860       12.1098977390        4.3535261137
O                0.8194557639       12.3857373571        6.6899461137
O               10.2353719202        4.0571766873        4.2807171618
O               13.3223659611        6.8355037564        6.6171371618
O                9.3727671188        8.1197554826        1.9442971618
O               -0.7414630798       14.9552592390        0.3921228382
O               -1.6040678812       10.8926804437        2.7285428382
O                2.3455309611       12.1769321699        5.0649628382
H               10.5671487088        1.7586631462        3.7766440802
H               15.1470486843        8.2720876543        6.1130640802
H                7.2163076069        8.9816851258        1.4402240802
H               -0.4096862912       17.2537727801        0.8961959198
H               -3.7605273931       10.0307508005        3.2326159198
H                4.1702136843       10.7403482720        5.5690359198
H                0.8057226309       18.9791199811        0.0619333618
H               -5.8624263605       10.2206522025        2.3983533618
H                5.0567037297        8.8250996691        4.7347733618
H               11.7825576308        0.0333159452        4.6109066382
H               16.0335387297       10.1873362572        6.9473266382
H                5.1144086395        8.7917837238        2.2744866382
H               11.8842148775        2.2055809726        6.0372020977
H               14.1014734089        9.1892415018        1.3643620977
H                6.9448167136        7.6176134520        3.7007820977
H                0.9073798776       16.8068549537        5.6448979023
H               -4.0320182864       11.3948224743        0.9720579023
H                3.1246384089        9.8231944245        3.3084779023
H                2.7233842549       15.5479370018        1.4786861709
H               -3.8497655474       13.5969873744        3.8151061709
H                1.1263812927        8.8799474764        6.1515261709
H               13.7002192549        3.4644989245        3.1941538291
H               12.1032162926       10.1324884499        5.5305738291
H                7.1270694526        5.4154485519        0.8577338291
H                3.6234102771       14.1521727175        5.8998863361
H               -3.0910112306       15.0743149158        1.2270463361
H               -0.5323990464        8.7983842192        3.5634663361
H               14.6002452771        4.8602632088        5.7822136639
H               10.4444359536       10.2140517071        1.1093736639
H                7.8858237694        3.9381210105        3.4457936639
H                6.0022205704       13.6432505528        5.6218815142
H               -3.8396768541       17.3888861430        0.9490415142
H               -2.1625437162        6.9927351568        3.2854615142
H               16.9790555704        5.3691853735        6.0602184858
H                8.8142912838       12.0197007695        1.3873784858
H                7.1371581458        1.6235497833        3.7237984858
H                5.4034622640       14.9014193074        4.5250601148
H               -4.6299038047       16.2412618616        6.8614801148
H               -0.7735584593        6.8821906836        2.1886401148
H               16.3802972640        4.1110166189        0.1477798852
H               10.2032765407       12.1302452427        2.4841998852
H                6.3469311953        2.7711740647        4.8206198852
H                5.0331166303       16.4268360544        1.3765036752
H               -5.7657806419       15.1578247611        3.7129236752
H                0.7326640118        6.4402110372        6.0493436752
H               16.0099516302        2.5855998719        3.2963363248
H               11.7094990118       12.5722248891        5.6327563248
H                5.2110543581        3.8546111652        0.9599163248
H                5.5869184231       15.1428501646        2.4584870646
H               -4.9307171397       16.2794241273        4.7949070646
H               -0.6562012833        6.6025975608        0.1220670646
H               16.5637534230        3.8695857617        2.2143529354
H               10.3206337167       12.4098383655        4.5507729354
H                6.0461178603        2.7330117990        6.8871929354
H                7.2649711372       14.3974312716        0.8075729198
H               -5.1241917991       18.1053698530        3.1439929198
H               -2.1407793381        5.5220707280        5.4804129198
H               18.2418061372        4.6150046547        3.8652670802
H                8.8360556619       13.4903651983        6.2016870802
H                5.8526432009        0.9070660733        1.5288470802
H                7.4966267352       16.1185166238        1.1013681416
H               -6.7305232351       17.4454468098        3.4377881416
H               -0.7661035000        4.4609084190        5.7742081416
H               18.4734617352        2.8939193025        3.5714718584
H               10.2107315000       14.5515275073        5.9078918584
H                4.2463117649        1.5669891165        1.2350518584
H                6.2505673164       16.6747758792        6.0195005895
H               -6.5892281720       16.0881980708        1.3466605895
H                0.3386608556        5.2618979026        3.6830805895
H               17.2274023164        2.3376600471        5.6625994105
H               11.3154958556       13.7505380237        0.9897594105
H                4.3876068280        2.9242378555        3.3261794105
H                7.5686311962       15.5580997503        5.6412326206
H               -6.2811902164       17.7880129390        0.9683926206
H               -1.2874409798        4.6787591634        3.3048126206
H               18.5454661962        3.4543361760        6.0408673794
H                9.6893940202       14.3336767629        1.3680273794
H                4.6956447836        1.2244229873        3.7044473794
H                2.3397496993       13.9787134048        0.7872487176
H               -2.2989607703       14.0493619020        3.1236687176
H               -0.0407889289        9.9967965459        5.4600887176
H               13.3165846992        5.0337225215        3.8855912824
H               10.9360460711        9.0156393804        6.2220112824
H                8.6778742296        4.9630740243        1.5491712824
H                4.8355461697       13.4139238907        0.8696717010
H               -3.0577369386       16.4931798051        3.2060917010
H               -1.7778092311        8.1177681568        5.5425117010
H               15.8123811697        5.5985120356        3.8031682990
H                9.1990257689       10.8946677695        6.1395882990
H                7.9190980614        2.5192561212        1.4667482990
H                3.6972750975       13.1540315310        2.8551750398
H               -2.2635280167       15.6373543200        5.1915950398
H               -1.4337470807        9.2334860016        0.5187550398
H               14.6741100975        5.8584043953        1.8176649602
H                9.5430879193        9.7789499247        4.1540849602
H                8.7133069833        3.3750816063        6.4905049602
H                3.2889187089       14.6042234281        3.4787439623
H               -3.3152528457       14.5586113651        5.8151639623
H                0.0263341369        8.8620370594        1.1423239623
H               14.2657537088        4.4082124982        1.1940960377
H               11.0031691369       10.1503988669        3.5305160377
H                7.6615821543        4.4538245612        5.8669360377
C               11.3167869874        3.2773566737        0.8005313266
C               13.4570023696        8.1619466834        3.1369513266
C                8.1567156430        7.5731325691        5.4733713266
C                0.3399519874       15.7350792526        3.8723086734
C               -2.8201193570       11.4393033572        6.2087286734
C                2.4801673696       10.8504892429        1.5358886734
C               10.9500843717        3.1272118221        2.1846008438
C               13.7703829332        7.9194453285        4.5210208438
C                8.2100376951        7.9657787758        6.8574408438
C               -0.0267506283       15.8852241042        2.4882391562
C               -2.7667973049       11.0466571505        4.8246591562
C                2.7935479332       11.0929905978        0.1518191562
C               10.8708309097        1.8305050102        2.7394091546
C               14.9329907045        8.4991632230        5.0758291546
C                7.1266833857        8.6827676931        0.4029891546
C               -0.1060040902       17.1819309161        1.9334308454
C               -3.8501516143       10.3296682332        4.2698508454
C                3.9561557045       10.5132727033        6.6062708454
C               11.1638205146        0.6706954046        2.0155476115
C               15.7909204841        9.3328044667        4.3519676115
C                5.9757640013        9.0089360550        6.6883876115
C                0.1869855146       18.3417405217        2.6572923885
C               -5.0010709987       10.0034998713        4.9937123885
C                4.8140854841        9.6796314596        0.3208723885
C               11.5176908223        0.8365744495        0.6527392922
C               15.4703298634        9.5563256204        2.9891592922
C                5.9424843143        8.6195358565        5.3255792922
C                0.5408558224       18.1758614768        4.0201007078
C               -5.0343506857       10.3929000698        6.3565207078
C                4.4934948634        9.4561103059        1.6836807078
C               11.5805062802        2.0917266681        0.0640973238
C               14.3519284276        8.9831492933        2.4005173238
C                6.9980702923        7.9375599649        4.7369373238
C                0.6036712803       16.9207092582        4.6087426762
C               -3.9787647077       11.0748759614        6.9451626762
C                3.3750934276       10.0292866330        2.2723226762
C               10.6523023227        4.2773645718        3.0902453199
C               12.9232124582        7.0864821344        5.4266653199
C                9.3549902191        7.6485892201        0.7538253199
C               -0.3245326773       14.7350713545        1.5825946801
C               -1.6218447809       11.3638467062        3.9190146801
C                1.9463774582       11.9259537919        6.2554346801
C                4.4487651455       14.4485832644        0.7471454664
C               -3.7603877284       15.6408879256        3.0835654664
C               -0.6883774171        7.9354006626        5.4199854664
C               15.4256001455        4.5638526619        3.9256945336
C               10.2884575829       11.0770352637        6.2621145336
C                7.2164472716        3.3715480007        1.5892745336
C                5.5905773535       14.6702657830        5.5775961964
C               -4.5232765251       16.5188850447        0.9047561964
C               -1.0673008283        6.8357210249        3.2411761964
C               16.5674123535        4.3421701433        6.1045038036
C                9.9095341717       12.1767149014        1.4316638036
C                6.4535584748        2.4935508816        3.7680838036
C                6.6158347783       15.6524765440        6.1700935380
C               -5.8865247083       16.9156786396        1.4972535380
C               -0.7293100699        5.4567166691        3.8336735380
C               17.5926697782        3.3599593823        5.5120064620
C               10.2475249301       13.5557192572        0.8391664620
C                5.0903102917        2.0967572867        3.1755864620
C                5.4542792690       15.4147293910        1.4061163942
C               -5.0998518795       16.0286156370        3.7425363942
C               -0.3544273894        6.5815268246        6.0789563942
C               16.4311142689        3.5977065353        3.2667236058
C               10.6224076106       12.4309091017        5.6031436058
C                5.8769831205        2.9838202893        0.9303036058
C                6.8084531304       15.3859823400        0.6691659186
C               -5.7520431338       17.2157381277        3.0055859186
C               -1.0564099965        5.4231513849        5.3420059186
C               17.7852881303        3.6264535863        4.0036740814
C                9.9204250034       13.5892845414        6.3400940814
C                5.2247918662        1.7966977986        1.6672540814
C                3.0596055172       14.5106568543        1.4076687310
C               -3.1195652200       14.4068036025        3.7440887310
C                0.0599597029        9.1074113957        6.0805087310
C               14.0364405172        4.5017790720        3.2651712690
C               11.0367947029        9.9050245306        5.6015912690
C                7.8572697800        4.6056323238        0.9287512690
N                4.3086293385       14.7815788703        6.3174395191
N               -3.9787024789       15.3530289537        1.6445995191
N               -0.3299268594        7.8902640286        3.9810195191
N               15.2854643384        4.2308570560        5.3646604809
N               10.6469081406       11.1221718977        0.6918204809
N                6.9981325211        3.6594069726        3.0282404809
N                3.0095924007       13.9093985367        2.7853765945
N               -2.5738536845       14.6641201320        5.1217965945
N               -0.4357387161        9.4513531839        0.4489565945
N               13.9864274007        5.1030373896        1.8874634055
N               10.5410962839        9.5610827424        4.2238834055
N                8.4029813155        4.3483157943        6.5603034055



     Writing config-only to output data dir ./tmp/a_MOF.save/ :
     XML data file
     NEW-OLD atomic charge density approx. for the potential

     Check: negative core charge=   -0.000001

     negative rho (up, down):  1.291E-04 0.000E+00

     total cpu time spent up to now is     2025.2 secs

     per-process dynamical memory:   352.1 Mb

     Self-consistent Calculation

     iteration #  1     ecut=    60.00 Ry     beta= 0.30
     Davidson diagonalization with overlap
     ethr =  1.00E-06,  avg # of iterations =  3.0

     Threshold (ethr) on eigenvalues was too large:
     Diagonalizing with lowered threshold

     Davidson diagonalization with overlap
     ethr =  1.28E-08,  avg # of iterations =  6.0

     negative rho (up, down):  1.292E-04 0.000E+00

     total cpu time spent up to now is     2195.5 secs

     total energy              =   -2833.91831316 Ry
     estimated scf accuracy    <       0.00011888 Ry

     iteration #  2     ecut=    60.00 Ry     beta= 0.30
     Davidson diagonalization with overlap
     ethr =  2.00E-08,  avg # of iterations =  3.0

     negative rho (up, down):  1.294E-04 0.000E+00

     total cpu time spent up to now is     2259.2 secs

     total energy              =   -2833.91831219 Ry
     estimated scf accuracy    <       0.00003446 Ry

     iteration #  3     ecut=    60.00 Ry     beta= 0.30
     Davidson diagonalization with overlap
     ethr =  5.80E-09,  avg # of iterations =  4.5

     negative rho (up, down):  1.294E-04 0.000E+00

     total cpu time spent up to now is     2339.9 secs

     total energy              =   -2833.91831741 Ry
     estimated scf accuracy    <       0.00000648 Ry

     iteration #  4     ecut=    60.00 Ry     beta= 0.30
     Davidson diagonalization with overlap
     ethr =  1.09E-09,  avg # of iterations =  6.0

     negative rho (up, down):  1.294E-04 0.000E+00

     total cpu time spent up to now is     2425.4 secs

     total energy              =   -2833.91831836 Ry
     estimated scf accuracy    <       0.00000366 Ry

     iteration #  5     ecut=    60.00 Ry     beta= 0.30
     Davidson diagonalization with overlap
     ethr =  6.16E-10,  avg # of iterations =  6.0

     negative rho (up, down):  1.294E-04 0.000E+00

     total cpu time spent up to now is     2495.9 secs

     total energy              =   -2833.91831919 Ry
     estimated scf accuracy    <       0.00000044 Ry

     iteration #  6     ecut=    60.00 Ry     beta= 0.30
     Davidson diagonalization with overlap
     ethr =  7.36E-11,  avg # of iterations =  3.0

     negative rho (up, down):  1.294E-04 0.000E+00

     total cpu time spent up to now is     2562.7 secs

     total energy              =   -2833.91831921 Ry
     estimated scf accuracy    <       0.00000010 Ry

     iteration #  7     ecut=    60.00 Ry     beta= 0.30
     Davidson diagonalization with overlap
     ethr =  1.62E-11,  avg # of iterations =  7.0

     negative rho (up, down):  1.294E-04 0.000E+00

     total cpu time spent up to now is     2655.4 secs

     total energy              =   -2833.91831925 Ry
     estimated scf accuracy    <       0.00000003 Ry

     iteration #  8     ecut=    60.00 Ry     beta= 0.30
     Davidson diagonalization with overlap
     ethr =  4.48E-12,  avg # of iterations =  5.5

     negative rho (up, down):  1.294E-04 0.000E+00

     total cpu time spent up to now is     2744.6 secs

     End of self-consistent calculation

          k = 0.0000 0.0000 0.0000 (154911 PWs)   bands (ev):

   -22.4554 -22.4553 -22.3130 -22.3130 -22.3130 -22.3130 -20.5265 -20.5262
   -20.5112 -20.5112 -20.5107 -20.5107 -20.0312 -20.0309 -20.0143 -20.0143
   -20.0141 -20.0141 -18.7386 -18.7386 -18.7375 -18.7375 -18.7360 -18.7348
   -18.1591 -18.1591 -18.1577 -18.1577 -18.1562 -18.1547 -17.1208 -17.1120
   -17.1120 -16.4781 -16.4566 -16.4566 -15.4350 -15.4350 -15.4350 -15.3725
   -15.3725 -15.3723 -14.8170 -14.8103 -14.8103 -14.8069 -14.8061 -14.8061
   -14.7022 -14.6462 -14.6462 -14.5360 -14.5268 -14.5268 -14.2997 -14.2997
   -14.2895 -13.1385 -13.0632 -13.0632 -12.7665 -12.7665 -12.7599 -12.7518
   -12.7518 -12.7480 -11.7221 -11.7221 -11.7205 -11.6850 -11.6850 -11.6810
   -11.6603 -11.6603 -11.6453 -11.2817 -11.2817 -11.2500 -10.8118 -10.8118
   -10.8059 -10.8020 -10.7859 -10.7859 -10.7732 -10.6881 -10.6881 -10.3741
   -10.3741 -10.3308  -9.8302  -9.7806  -9.7758  -9.7758  -9.7359  -9.7312
    -9.7312  -9.5530  -9.5530  -9.4738  -8.9695  -8.9695  -8.7874  -8.7805
    -8.7699  -8.7699  -8.7539  -8.7539  -8.5989  -8.5989  -8.5056  -8.4581
    -8.4581  -8.4325  -8.3954  -8.3825  -8.3825  -8.1031  -8.1031  -7.9120
    -7.7798  -7.7746  -7.7746  -7.6991  -7.6991  -7.6287  -7.5426  -7.5426
    -7.4937  -7.4442  -7.4402  -7.4402  -7.4131  -7.4131  -7.3220  -7.3127
    -7.3127  -7.3087  -7.2577  -7.2577  -7.1640  -7.1603  -7.1537  -7.1537
    -7.0825  -7.0825  -6.9907  -6.9907  -6.9899  -6.9290  -6.9290  -6.7866
    -6.7318  -6.6793  -6.6793  -6.6272  -6.6074  -6.6074  -6.5943  -6.5804
    -6.5804  -6.5473  -6.5473  -6.5269  -6.5042  -6.4000  -6.3732  -6.2742
    -6.2742  -6.2593  -6.2593  -6.1812  -6.1812  -6.1635  -6.1482  -6.1482
    -6.1232  -6.0893  -6.0893  -6.0514  -6.0126  -6.0126  -5.9923  -5.7363
    -5.7222  -5.7161  -5.7161  -5.7085  -5.7085  -5.6103  -5.6103  -5.5035
    -5.4882  -5.4882  -5.4864  -5.4100  -5.4100  -5.3878  -5.3495  -5.3271
    -5.3271  -5.3041  -5.3020  -5.3020  -5.1878  -5.1630  -5.1630  -5.1183
    -5.1137  -5.1137  -4.9996  -4.9996  -4.9851  -4.8456  -4.8456  -4.7398
    -4.5303  -4.5303  -4.4704  -4.4704  -4.4504  -4.4385  -4.3753  -4.3643
    -4.3643  -4.2992  -4.2992  -4.2590  -4.2278  -4.2278  -4.2216  -4.2044
    -4.1777  -4.1777  -4.0443  -4.0443  -4.0324  -4.0234  -3.9838  -3.9838
    -3.9388  -3.9388  -3.8778  -3.8777  -3.8193  -3.8193  -3.8178  -3.7043
    -3.6808  -3.6808  -3.4776  -3.4776  -3.4621  -3.4621  -3.4396  -3.1684
    -3.1684  -3.1123  -3.0927  -3.0753  -3.0753  -2.8591  -2.8591  -2.7853
    -2.7853  -2.6448  -2.6411  -2.5470  -2.5470  -2.5402  -2.5402  -2.4769
    -2.4691  -2.2262  -2.2262  -2.2139  -2.2139  -2.1894  -2.1786  -2.0068
    -2.0068  -1.9791  -1.9791  -1.8250  -1.8246  -1.6168  -1.6168  -1.5445
    -1.4011  -1.3978  -1.3978  -1.3597  -1.3597  -1.3583  -0.7131  -0.7131
    -0.6353

          k = 0.0000 0.0000-1.5660 (154844 PWs)   bands (ev):

   -22.3956 -22.3956 -22.3955 -22.3955 -22.2820 -22.2819 -20.5581 -20.5581
   -20.5578 -20.5578 -20.4972 -20.4968 -20.0097 -20.0097 -20.0094 -20.0094
   -19.9856 -19.9854 -18.7024 -18.7013 -18.6993 -18.6993 -18.6981 -18.6981
   -18.2116 -18.2103 -18.2075 -18.2075 -18.2063 -18.2063 -17.1018 -17.1018
   -17.1014 -16.4661 -16.4661 -16.4635 -15.4301 -15.4301 -15.4301 -15.3677
   -15.3676 -15.3676 -14.8070 -14.8070 -14.8065 -14.8034 -14.8033 -14.8033
   -14.6618 -14.6618 -14.6469 -14.5784 -14.5784 -14.5734 -14.2915 -14.2915
   -14.2848 -13.1016 -13.1016 -13.0719 -12.7758 -12.7701 -12.7701 -12.7627
   -12.7565 -12.7565 -11.6981 -11.6981 -11.6541 -11.6434 -11.6410 -11.6410
   -11.5890 -11.5841 -11.5841 -11.2368 -11.2368 -11.1768 -10.8436 -10.8415
   -10.8415 -10.8180 -10.8151 -10.8151 -10.7007 -10.7007 -10.6305 -10.3770
   -10.3770 -10.3434  -9.7935  -9.7935  -9.7840  -9.7525  -9.7525  -9.7407
    -9.7393  -9.7393  -9.5779  -9.2942  -9.2942  -8.9163  -8.8585  -8.8585
    -8.8557  -8.8557  -8.8213  -8.8154  -8.5335  -8.4357  -8.4357  -8.2302
    -8.2302  -8.2159  -8.1498  -8.1498  -8.1435  -8.0446  -7.9928  -7.9928
    -7.9309  -7.9309  -7.8658  -7.6838  -7.5986  -7.5986  -7.5388  -7.5379
    -7.5379  -7.5039  -7.4872  -7.4872  -7.4116  -7.4052  -7.3629  -7.3629
    -7.3492  -7.2855  -7.2855  -7.2652  -7.2447  -7.2447  -7.2031  -7.2031
    -7.0355  -7.0034  -6.9478  -6.9478  -6.8525  -6.8525  -6.8176  -6.7305
    -6.7305  -6.7192  -6.6679  -6.6679  -6.6430  -6.5982  -6.5699  -6.5699
    -6.5397  -6.5397  -6.4916  -6.4916  -6.4799  -6.4562  -6.4009  -6.4009
    -6.3722  -6.3722  -6.3507  -6.3507  -6.3233  -6.2779  -6.2728  -6.2728
    -6.2117  -6.1978  -6.1978  -6.1945  -6.1945  -6.1780  -6.1201  -6.1073
    -6.0617  -6.0617  -5.9454  -5.9114  -5.9114  -5.6415  -5.6415  -5.6241
    -5.5772  -5.4960  -5.4960  -5.4633  -5.4633  -5.4056  -5.3798  -5.3798
    -5.3746  -5.3278  -5.2943  -5.2943  -5.1559  -5.1537  -5.1537  -5.1059
    -5.1059  -5.1024  -4.8175  -4.8175  -4.8104  -4.7689  -4.7689  -4.6872
    -4.6004  -4.5068  -4.4804  -4.4804  -4.4596  -4.4596  -4.3533  -4.3528
    -4.3528  -4.2208  -4.2208  -4.2148  -4.1876  -4.1876  -4.1666  -4.1569
    -4.1536  -4.1536  -4.0523  -4.0148  -4.0148  -3.9769  -3.9769  -3.9029
    -3.9022  -3.7730  -3.6861  -3.6562  -3.6562  -3.5155  -3.5155  -3.5113
    -3.5013  -3.5013  -3.4915  -3.4475  -3.4475  -3.3713  -3.3713  -3.1030
    -3.0201  -3.0094  -3.0094  -2.9847  -2.9847  -2.8982  -2.8529  -2.8529
    -2.8156  -2.8156  -2.7997  -2.5253  -2.5209  -2.4858  -2.4858  -2.4784
    -2.4784  -2.2907  -2.2551  -2.2551  -2.2129  -2.1673  -2.1673  -2.0200
    -2.0200  -2.0046  -2.0046  -2.0021  -1.9668  -1.6011  -1.6011  -1.5426
    -1.3945  -1.3945  -1.3856  -1.3605  -1.3605  -1.3552  -0.6913  -0.6729
    -0.6729

     highest occupied level (ev):    -0.6353

!    total energy              =   -2833.91831923 Ry
     estimated scf accuracy    <          3.7E-09 Ry

     The total energy is the sum of the following terms:
     one-electron contribution =   -6465.02139271 Ry
     hartree contribution      =    3420.93709541 Ry
     xc contribution           =    -673.78240367 Ry
     ewald contribution        =    1776.92794779 Ry
     one-center paw contrib.   =    -892.97956605 Ry

     convergence has been achieved in   8 iterations

     negative rho (up, down):  1.294E-04 0.000E+00

     Forces acting on atoms (cartesian axes, Ry/au):

     atom    1 type  1   force =    -0.00044500   -0.00036667   -0.00056123
     atom    2 type  1   force =     0.00054004   -0.00020205   -0.00056123
     atom    3 type  1   force =    -0.00009504    0.00056872   -0.00056123
     atom    4 type  1   force =    -0.00044500    0.00036667    0.00056123
     atom    5 type  1   force =    -0.00009504   -0.00056872    0.00056123
     atom    6 type  1   force =     0.00054004    0.00020205    0.00056123
     atom    7 type  2   force =     0.00181674   -0.00046608   -0.00092774
     atom    8 type  2   force =    -0.00050474    0.00180638   -0.00092774
     atom    9 type  2   force =    -0.00131201   -0.00134031   -0.00092774
     atom   10 type  2   force =     0.00181674    0.00046608    0.00092774
     atom   11 type  2   force =    -0.00131201    0.00134031    0.00092774
     atom   12 type  2   force =    -0.00050474   -0.00180638    0.00092774
     atom   13 type  2   force =    -0.00029106   -0.00106900   -0.00051754
     atom   14 type  2   force =     0.00107131    0.00028244   -0.00051754
     atom   15 type  2   force =    -0.00078026    0.00078656   -0.00051754
     atom   16 type  2   force =    -0.00029106    0.00106900    0.00051754
     atom   17 type  2   force =    -0.00078026   -0.00078656    0.00051754
     atom   18 type  2   force =     0.00107131   -0.00028244    0.00051754
     atom   19 type  2   force =    -0.00056884   -0.00035198    0.00072288
     atom   20 type  2   force =     0.00058924   -0.00031664    0.00072288
     atom   21 type  2   force =    -0.00002040    0.00066862    0.00072288
     atom   22 type  2   force =    -0.00056884    0.00035198   -0.00072288
     atom   23 type  2   force =    -0.00002040   -0.00066862   -0.00072288
     atom   24 type  2   force =     0.00058924    0.00031664   -0.00072288
     atom   25 type  3   force =     0.00073615    0.00006362   -0.00069589
     atom   26 type  3   force =    -0.00042317    0.00060572   -0.00069589
     atom   27 type  3   force =    -0.00031298   -0.00066934   -0.00069589
     atom   28 type  3   force =     0.00073615   -0.00006362    0.00069589
     atom   29 type  3   force =    -0.00031298    0.00066934    0.00069589
     atom   30 type  3   force =    -0.00042317   -0.00060572    0.00069589
     atom   31 type  3   force =     0.00003081    0.00030658    0.00014617
     atom   32 type  3   force =    -0.00028091   -0.00012661    0.00014617
     atom   33 type  3   force =     0.00025010   -0.00017997    0.00014617
     atom   34 type  3   force =     0.00003081   -0.00030658   -0.00014617
     atom   35 type  3   force =     0.00025010    0.00017997   -0.00014617
     atom   36 type  3   force =    -0.00028091    0.00012661   -0.00014617
     atom   37 type  3   force =    -0.00126340    0.00040975    0.00135425
     atom   38 type  3   force =     0.00027685   -0.00129901    0.00135425
     atom   39 type  3   force =     0.00098656    0.00088926    0.00135425
     atom   40 type  3   force =    -0.00126340   -0.00040975   -0.00135425
     atom   41 type  3   force =     0.00098656   -0.00088926   -0.00135425
     atom   42 type  3   force =     0.00027685    0.00129901   -0.00135425
     atom   43 type  3   force =    -0.00007945   -0.00008623   -0.00009853
     atom   44 type  3   force =     0.00011440   -0.00002569   -0.00009853
     atom   45 type  3   force =    -0.00003495    0.00011192   -0.00009853
     atom   46 type  3   force =    -0.00007945    0.00008623    0.00009853
     atom   47 type  3   force =    -0.00003495   -0.00011192    0.00009853
     atom   48 type  3   force =     0.00011440    0.00002569    0.00009853
     atom   49 type  3   force =    -0.00103595   -0.00059529   -0.00041044
     atom   50 type  3   force =     0.00103351   -0.00059952   -0.00041044
     atom   51 type  3   force =     0.00000244    0.00119481   -0.00041044
     atom   52 type  3   force =    -0.00103595    0.00059529    0.00041044
     atom   53 type  3   force =     0.00000244   -0.00119481    0.00041044
     atom   54 type  3   force =     0.00103351    0.00059952    0.00041044
     atom   55 type  3   force =    -0.00005009   -0.00064367    0.00040834
     atom   56 type  3   force =     0.00058248    0.00027845    0.00040834
     atom   57 type  3   force =    -0.00053239    0.00036522    0.00040834
     atom   58 type  3   force =    -0.00005009    0.00064367   -0.00040834
     atom   59 type  3   force =    -0.00053239   -0.00036522   -0.00040834
     atom   60 type  3   force =     0.00058248   -0.00027845   -0.00040834
     atom   61 type  3   force =    -0.00031726    0.00011908    0.00240059
     atom   62 type  3   force =     0.00005551   -0.00033430    0.00240059
     atom   63 type  3   force =     0.00026176    0.00021522    0.00240059
     atom   64 type  3   force =    -0.00031726   -0.00011908   -0.00240059
     atom   65 type  3   force =     0.00026176   -0.00021522   -0.00240059
     atom   66 type  3   force =     0.00005551    0.00033430   -0.00240059
     atom   67 type  3   force =    -0.00017692    0.00083274   -0.00030367
     atom   68 type  3   force =    -0.00063271   -0.00056958   -0.00030367
     atom   69 type  3   force =     0.00080963   -0.00026315   -0.00030367
     atom   70 type  3   force =    -0.00017692   -0.00083274    0.00030367
     atom   71 type  3   force =     0.00080963    0.00026315    0.00030367
     atom   72 type  3   force =    -0.00063271    0.00056958    0.00030367
     atom   73 type  3   force =     0.00154874    0.00041516   -0.00168551
     atom   74 type  3   force =    -0.00113391    0.00113367   -0.00168551
     atom   75 type  3   force =    -0.00041483   -0.00154883   -0.00168551
     atom   76 type  3   force =     0.00154874   -0.00041516    0.00168551
     atom   77 type  3   force =    -0.00041483    0.00154883    0.00168551
     atom   78 type  3   force =    -0.00113391   -0.00113367    0.00168551
     atom   79 type  3   force =     0.00019674    0.00050790   -0.00029262
     atom   80 type  3   force =    -0.00053822   -0.00008356   -0.00029262
     atom   81 type  3   force =     0.00034148   -0.00042433   -0.00029262
     atom   82 type  3   force =     0.00019674   -0.00050790    0.00029262
     atom   83 type  3   force =     0.00034148    0.00042433    0.00029262
     atom   84 type  3   force =    -0.00053822    0.00008356    0.00029262
     atom   85 type  3   force =     0.00052991    0.00038600    0.00069558
     atom   86 type  3   force =    -0.00059924    0.00026591    0.00069558
     atom   87 type  3   force =     0.00006933   -0.00065191    0.00069558
     atom   88 type  3   force =     0.00052991   -0.00038600   -0.00069558
     atom   89 type  3   force =     0.00006933    0.00065191   -0.00069558
     atom   90 type  3   force =    -0.00059924   -0.00026591   -0.00069558
     atom   91 type  3   force =     0.00050467   -0.00013501    0.00020547
     atom   92 type  3   force =    -0.00013542    0.00050456    0.00020547
     atom   93 type  3   force =    -0.00036925   -0.00036955    0.00020547
     atom   94 type  3   force =     0.00050467    0.00013501   -0.00020547
     atom   95 type  3   force =    -0.00036925    0.00036955   -0.00020547
     atom   96 type  3   force =    -0.00013542   -0.00050456   -0.00020547
     atom   97 type  3   force =     0.00042331    0.00008137   -0.00082274
     atom   98 type  3   force =    -0.00028212    0.00032592   -0.00082274
     atom   99 type  3   force =    -0.00014119   -0.00040728   -0.00082274
     atom  100 type  3   force =     0.00042331   -0.00008137    0.00082274
     atom  101 type  3   force =    -0.00014119    0.00040728    0.00082274
     atom  102 type  3   force =    -0.00028212   -0.00032592    0.00082274
     atom  103 type  3   force =    -0.00074600    0.00009038   -0.00028537
     atom  104 type  3   force =     0.00029473   -0.00069125   -0.00028537
     atom  105 type  3   force =     0.00045127    0.00060087   -0.00028537
     atom  106 type  3   force =    -0.00074600   -0.00009038    0.00028537
     atom  107 type  3   force =     0.00045127   -0.00060087    0.00028537
     atom  108 type  3   force =     0.00029473    0.00069125    0.00028537
     atom  109 type  3   force =    -0.00012649   -0.00004619    0.00002318
     atom  110 type  3   force =     0.00010324   -0.00008645    0.00002318
     atom  111 type  3   force =     0.00002325    0.00013264    0.00002318
     atom  112 type  3   force =    -0.00012649    0.00004619   -0.00002318
     atom  113 type  3   force =     0.00002325   -0.00013264   -0.00002318
     atom  114 type  3   force =     0.00010324    0.00008645   -0.00002318
     atom  115 type  3   force =     0.00000276   -0.00004495   -0.00024288
     atom  116 type  3   force =     0.00003755    0.00002486   -0.00024288
     atom  117 type  3   force =    -0.00004030    0.00002009   -0.00024288
     atom  118 type  3   force =     0.00000276    0.00004495    0.00024288
     atom  119 type  3   force =    -0.00004030   -0.00002009    0.00024288
     atom  120 type  3   force =     0.00003755   -0.00002486    0.00024288
     atom  121 type  3   force =    -0.00007003   -0.00011458   -0.00027019
     atom  122 type  3   force =     0.00013424   -0.00000336   -0.00027019
     atom  123 type  3   force =    -0.00006421    0.00011794   -0.00027019
     atom  124 type  3   force =    -0.00007003    0.00011458    0.00027019
     atom  125 type  3   force =    -0.00006421   -0.00011794    0.00027019
     atom  126 type  3   force =     0.00013424    0.00000336    0.00027019
     atom  127 type  4   force =     0.00015556    0.00037947    0.00040610
     atom  128 type  4   force =    -0.00040642   -0.00005501    0.00040610
     atom  129 type  4   force =     0.00025085   -0.00032446    0.00040610
     atom  130 type  4   force =     0.00015556   -0.00037947   -0.00040610
     atom  131 type  4   force =     0.00025085    0.00032446   -0.00040610
     atom  132 type  4   force =    -0.00040642    0.00005501   -0.00040610
     atom  133 type  4   force =    -0.00056877   -0.00092998    0.00008792
     atom  134 type  4   force =     0.00108977   -0.00002757    0.00008792
     atom  135 type  4   force =    -0.00052101    0.00095756    0.00008792
     atom  136 type  4   force =    -0.00056877    0.00092998   -0.00008792
     atom  137 type  4   force =    -0.00052101   -0.00095756   -0.00008792
     atom  138 type  4   force =     0.00108977    0.00002757   -0.00008792
     atom  139 type  4   force =     0.00065091   -0.00004679    0.00024688
     atom  140 type  4   force =    -0.00028493    0.00058710    0.00024688
     atom  141 type  4   force =    -0.00036598   -0.00054030    0.00024688
     atom  142 type  4   force =     0.00065091    0.00004679   -0.00024688
     atom  143 type  4   force =    -0.00036598    0.00054030   -0.00024688
     atom  144 type  4   force =    -0.00028493   -0.00058710   -0.00024688
     atom  145 type  4   force =     0.00000530    0.00076314   -0.00021111
     atom  146 type  4   force =    -0.00066355   -0.00037698   -0.00021111
     atom  147 type  4   force =     0.00065825   -0.00038616   -0.00021111
     atom  148 type  4   force =     0.00000530   -0.00076314    0.00021111
     atom  149 type  4   force =     0.00065825    0.00038616    0.00021111
     atom  150 type  4   force =    -0.00066355    0.00037698    0.00021111
     atom  151 type  4   force =    -0.00012450   -0.00091016    0.00035404
     atom  152 type  4   force =     0.00085047    0.00034726    0.00035404
     atom  153 type  4   force =    -0.00072598    0.00056290    0.00035404
     atom  154 type  4   force =    -0.00012450    0.00091016   -0.00035404
     atom  155 type  4   force =    -0.00072598   -0.00056290   -0.00035404
     atom  156 type  4   force =     0.00085047   -0.00034726   -0.00035404
     atom  157 type  4   force =    -0.00013158    0.00030140    0.00044683
     atom  158 type  4   force =    -0.00019523   -0.00026465    0.00044683
     atom  159 type  4   force =     0.00032681   -0.00003675    0.00044683
     atom  160 type  4   force =    -0.00013158   -0.00030140   -0.00044683
     atom  161 type  4   force =     0.00032681    0.00003675   -0.00044683
     atom  162 type  4   force =    -0.00019523    0.00026465   -0.00044683
     atom  163 type  4   force =    -0.00068022    0.00079838    0.00021418
     atom  164 type  4   force =    -0.00035131   -0.00098828    0.00021418
     atom  165 type  4   force =     0.00103153    0.00018990    0.00021418
     atom  166 type  4   force =    -0.00068022   -0.00079838   -0.00021418
     atom  167 type  4   force =     0.00103153   -0.00018990   -0.00021418
     atom  168 type  4   force =    -0.00035131    0.00098828   -0.00021418
     atom  169 type  4   force =    -0.00020070    0.00017493    0.00161287
     atom  170 type  4   force =    -0.00005115   -0.00026128    0.00161287
     atom  171 type  4   force =     0.00025185    0.00008634    0.00161287
     atom  172 type  4   force =    -0.00020070   -0.00017493   -0.00161287
     atom  173 type  4   force =     0.00025185   -0.00008634   -0.00161287
     atom  174 type  4   force =    -0.00005115    0.00026128   -0.00161287
     atom  175 type  4   force =    -0.00027290    0.00064367    0.00337655
     atom  176 type  4   force =    -0.00042098   -0.00055818    0.00337655
     atom  177 type  4   force =     0.00069389   -0.00008549    0.00337655
     atom  178 type  4   force =    -0.00027290   -0.00064367   -0.00337655
     atom  179 type  4   force =     0.00069389    0.00008549   -0.00337655
     atom  180 type  4   force =    -0.00042098    0.00055818   -0.00337655
     atom  181 type  4   force =    -0.00001031   -0.00016130   -0.00069716
     atom  182 type  4   force =     0.00014484    0.00007172   -0.00069716
     atom  183 type  4   force =    -0.00013453    0.00008957   -0.00069716
     atom  184 type  4   force =    -0.00001031    0.00016130    0.00069716
     atom  185 type  4   force =    -0.00013453   -0.00008957    0.00069716
     atom  186 type  4   force =     0.00014484   -0.00007172    0.00069716
     atom  187 type  4   force =     0.00015664   -0.00027890   -0.00308405
     atom  188 type  4   force =     0.00016321    0.00027510   -0.00308405
     atom  189 type  4   force =    -0.00031985    0.00000379   -0.00308405
     atom  190 type  4   force =     0.00015664    0.00027890    0.00308405
     atom  191 type  4   force =    -0.00031985   -0.00000379    0.00308405
     atom  192 type  4   force =     0.00016321   -0.00027510    0.00308405
     atom  193 type  4   force =     0.00030244    0.00030055    0.00069251
     atom  194 type  4   force =    -0.00041150    0.00011164    0.00069251
     atom  195 type  4   force =     0.00010907   -0.00041219    0.00069251
     atom  196 type  4   force =     0.00030244   -0.00030055   -0.00069251
     atom  197 type  4   force =     0.00010907    0.00041219   -0.00069251
     atom  198 type  4   force =    -0.00041150   -0.00011164   -0.00069251
     atom  199 type  4   force =    -0.00004983   -0.00008173    0.00010696
     atom  200 type  4   force =     0.00009569   -0.00000229    0.00010696
     atom  201 type  4   force =    -0.00004586    0.00008401    0.00010696
     atom  202 type  4   force =    -0.00004983    0.00008173   -0.00010696
     atom  203 type  4   force =    -0.00004586   -0.00008401   -0.00010696
     atom  204 type  4   force =     0.00009569    0.00000229   -0.00010696
     atom  205 type  5   force =     0.00041347   -0.00068253   -0.00086631
     atom  206 type  5   force =     0.00038435    0.00069934   -0.00086631
     atom  207 type  5   force =    -0.00079782   -0.00001681   -0.00086631
     atom  208 type  5   force =     0.00041347    0.00068253    0.00086631
     atom  209 type  5   force =    -0.00079782    0.00001681    0.00086631
     atom  210 type  5   force =     0.00038435   -0.00069934    0.00086631
     atom  211 type  5   force =    -0.00005237   -0.00013951   -0.00026687
     atom  212 type  5   force =     0.00014701    0.00002440   -0.00026687
     atom  213 type  5   force =    -0.00009464    0.00011511   -0.00026687
     atom  214 type  5   force =    -0.00005237    0.00013951    0.00026687
     atom  215 type  5   force =    -0.00009464   -0.00011511    0.00026687
     atom  216 type  5   force =     0.00014701   -0.00002440    0.00026687

     Total force =     0.019249     Total SCF correction =     0.000129
     Energy error            =      5.7E-04 Ry
     Gradient error          =      3.4E-03 Ry/Bohr

     number of scf cycles    =   3
     number of bfgs steps    =   2

     energy             old  =   -2833.9177468030 Ry
     energy             new  =   -2833.9183192311 Ry

     CASE: energy            _new < energy            _old

     new trust radius        =       0.0083563331 bohr
     new conv_thr            =       0.0000000034 Ry


ATOMIC_POSITIONS (angstrom)
Mg              10.2302233677        5.4282764380        5.8287260477
Mg              12.1375330222        6.1454951039        1.1558860477
Mg              10.5627486102        7.4386643846        3.4923060477
Mg              -0.7466116323       13.5841594883        5.8533739523
Mg              -0.4140863898       11.5737715417        1.1805339523
Mg               1.1606980222       12.8669408224        3.5169539523
O               11.4425578608        4.4598649845        0.1807539813
O               12.3700346956        7.6796132995        2.5171739813
O                9.1179124436        6.8729576423        4.8535939813
O                0.4657228609       14.5525709418        4.4920860187
O               -1.8589225564       12.1394782840        6.8285060187
O                1.3931996956       11.3328226268        2.1556660187
O               10.8171308219        5.4820944679        2.6549999864
O               11.7974715140        6.6268628538        4.9914199864
O               10.3159026642        6.9034786046        0.3185799864
O               -0.1597041781       13.5303414584        2.0178400136
O               -0.6609323358       12.1089573217        4.3542600136
O                0.8206365140       12.3855730725        6.6906800136
O               10.2346357020        4.0571535143        4.2817477081
O               13.3227541386        6.8348777593        6.6181677081
O                9.3731151595        8.1204046528        1.9453277081
O               -0.7421992980       14.9552824120        0.3910922919
O               -1.6037198405       10.8920312735        2.7275122919
O                2.3459191386       12.1775581670        5.0639322919
H               10.5680357861        1.7587069464        3.7758042093
H               15.1465672136        8.2728339857        6.1122242093
H                7.2159020003        8.9808949942        1.4393842093
H               -0.4087992139       17.2537289799        0.8970357907
H               -3.7609329997       10.0315409321        3.2334557907
H                4.1697322136       10.7396019406        5.5698757907
H                0.8058551019       18.9792060216        0.0620311966
H               -5.8625671093       10.2207239055        2.3984511966
H                5.0567120075        8.8249419255        4.7348711966
H               11.7826901018        0.0332299047        4.6108088034
H               16.0335470075       10.1874940008        6.9472288034
H                5.1142678907        8.7917120208        2.2743888034
H               11.8825599158        2.2061096093        6.0387232419
H               14.1018430768        9.1875439445        1.3658832419
H                6.9461020073        7.6187823725        3.7023032419
H                0.9057249159       16.8063263170        5.6433767581
H               -4.0307329927       11.3936535538        0.9705367581
H                3.1250080768        9.8248919818        3.3069567581
H                2.7233157288       15.5477114583        1.4785514592
H               -3.8495359580       13.5970408008        3.8149714592
H                1.1262202292        8.8801195935        6.1513914592
H               13.7001507288        3.4647244680        3.1942885408
H               12.1030552291       10.1323163328        5.5307085408
H                7.1272990420        5.4153951255        0.8578685408
H                3.6223465139       14.1516494661        5.8993656209
H               -3.0900262001       15.0736552956        1.2265256209
H               -0.5323203139        8.7995670909        3.5629456209
H               14.5991815139        4.8607864602        5.7827343791
H               10.4445146861       10.2128688354        1.1098943791
H                7.8868087999        3.9387806307        3.4463143791
H                6.0020276280       13.6427079797        5.6221902456
H               -3.8391105008       17.3889903365        0.9493502456
H               -2.1629171271        6.9931735363        3.2857702456
H               16.9788626280        5.3697279466        6.0599097544
H                8.8139178729       12.0192623900        1.3870697544
H                7.1377244991        1.6234455898        3.7234897544
H                5.4031350118       14.9014394950        4.5286694208
H               -4.6297576615       16.2409683591        6.8650894208
H               -0.7733773502        6.8824639985        2.1922494208
H               16.3799700118        4.1109964313        0.1441705792
H               10.2034576498       12.1299719278        2.4805905792
H                6.3470773385        2.7714675672        4.8170105792
H                5.0329704811       16.4276517233        1.3762291594
H               -5.7664139573       15.1572903577        3.7126491594
H                0.7334434764        6.4399297716        6.0490691594
H               16.0098054810        2.5847842030        3.2966108406
H               11.7102784764       12.5725061547        5.6330308406
H                5.2104210427        3.8551455686        0.9601908406
H                5.5890297167       15.1435667370        2.4558234446
H               -4.9323933564       16.2808942750        4.7922434446
H               -0.6566363602        6.6004108407        0.1194034446
H               16.5658647166        3.8688691893        2.2170165554
H               10.3201986398       12.4120250856        4.5534365554
H                6.0444416436        2.7315416513        6.8898565554
H                7.2651566060       14.3981460492        0.8072326921
H               -5.1249035491       18.1051730850        3.1436526921
H               -2.1402530570        5.5215527184        5.4800726921
H               18.2419916060        4.6142898771        3.8656073079
H                8.8365819430       13.4908832079        6.2020273079
H                5.8519314509        0.9072628413        1.5291873079
H                7.4970388097       16.1188068407        1.1022380987
H               -6.7309806076       17.4456585683        3.4386580987
H               -0.7660582020        4.4604064436        5.7750780987
H               18.4738738097        2.8936290856        3.5706019013
H               10.2107767980       14.5520294827        5.9070219013
H                4.2458543924        1.5667773580        1.2341819013
H                6.2512072797       16.6744999923        6.0197230516
H               -6.5893092286       16.0888902387        1.3468830516
H                0.3381019490        5.2614816216        3.6833030516
H               17.2280422797        2.3379359340        5.6623769484
H               11.3149369490       13.7509543047        0.9895369484
H                4.3875257714        2.9235456876        3.3259569484
H                7.5690122799       15.5582099753        5.6401684919
H               -6.2814762158       17.7882878546        0.9673284919
H               -1.2875360640        4.6783740227        3.3037484919
H               18.5458472799        3.4542259510        6.0419315081
H                9.6892989360       14.3340619036        1.3690915081
H                4.6953587842        1.2241480717        3.7055115081
H                2.3390421655       13.9790233793        0.7870061269
H               -2.2988754492       14.0485941726        3.1234261269
H               -0.0401667162        9.9972543009        5.4598461269
H               13.3158771654        5.0334125470        3.8858338731
H               10.9366682838        9.0151816254        6.2222538731
H                8.6779595507        4.9638417537        1.5494138731
H                4.8353492963       13.4141097374        0.8696329152
H               -3.0577994499       16.4929163844        3.2060529152
H               -1.7775498464        8.1178457308        5.5424729152
H               15.8121842963        5.5983261889        3.8032070848
H                9.1992851536       10.8945901955        6.1396270848
H                7.9190355501        2.5195195419        1.4667870848
H                3.6972409407       13.1539938207        2.8548732518
H               -2.2634782802       15.6373435945        5.1912932518
H               -1.4337626603        9.2335344374        0.5184532518
H               14.6740759407        5.8584421056        1.8179667482
H                9.5430723397        9.7789014889        4.1543867482
H                8.7133567198        3.3750923318        6.4908067482
H                3.2888118431       14.6040230817        3.4783780593
H               -3.3150259077       14.5586189898        5.8147980593
H                0.0262140647        8.8622297811        1.1419580593
H               14.2656468430        4.4084128446        1.1944619407
H               11.0030490647       10.1502061452        3.5308819407
H                7.6618090923        4.4538169365        5.8673019407
C               11.3171348271        3.2774658083        0.8017029225
C               13.4567339365        8.1621933540        3.1381229225
C                8.1566362366        7.5727767638        5.4745429225
C                0.3402998271       15.7349701180        3.8711370775
C               -2.8201987634       11.4396591625        6.2075570775
C                2.4798989365       10.8502425723        1.5347170775
C               10.9487876995        3.1269382678        2.1848496355
C               13.7712681743        7.9184591545        4.5212696355
C                8.2104491262        7.9670385041        6.8576896355
C               -0.0280473005       15.8854976585        2.4879903645
C               -2.7663858738       11.0453974222        4.8244103645
C                2.7944331743       11.0939767718        0.1515703645
C               10.8723233195        1.8308611660        2.7392705328
C               14.9319360597        8.5002776099        5.0756905328
C                7.1262456208        8.6812971505        0.4028505328
C               -0.1045116804       17.1815747603        1.9335694672
C               -3.8505893792       10.3311387758        4.2699894672
C                3.9551010597       10.5121583164        6.6064094672
C               11.1635683826        0.6711963931        2.0153246099
C               15.7906126814        9.3323356197        4.3517446099
C                5.9763239361        9.0089039135        6.6881646099
C                0.1867333826       18.3412395332        2.6575153901
C               -5.0005110639       10.0035320128        4.9939353901
C                4.8137776814        9.6801003066        0.3210953901
C               11.5176014012        0.8362449419        0.6530909666
C               15.4706599359        9.5564129332        2.9895109666
C                5.9422436629        8.6197780512        5.3259309666
C                0.5407664013       18.1761909844        4.0197490334
C               -5.0345913371       10.3926578751        6.3561690334
C                4.4938249359        9.4560229931        1.6833290334
C               11.5800525196        2.0919684423        0.0654198510
C               14.3519459252        8.9826354381        2.4018398510
C                6.9985065552        7.9378320459        4.7382598510
C                0.6032175198       16.9204674840        4.6074201490
C               -3.9783284448       11.0746038804        6.9438401490
C                3.3751109252       10.0298004882        2.2710001490
C               10.6514637395        4.2766760044        3.0903303694
C               12.9242280667        7.0861001837        5.4267503694
C                9.3548131938        7.6496597382        0.7539103694
C               -0.3253712605       14.7357599219        1.5825096306
C               -1.6220218062       11.3627761881        3.9189296306
C                1.9473930667       11.9263357426        6.2553496306
C                4.4479609010       14.4484851019        0.7477720796
C               -3.7599005950       15.6402405107        3.0841920796
C               -0.6880603061        7.9361462400        5.4206120796
C               15.4247959010        4.5639508244        3.9250679204
C               10.2887746939       11.0762896863        6.2614879204
C                7.2169344050        3.3721954156        1.5886479204
C                5.5905041665       14.6705402703        5.5820090432
C               -4.5234776445       16.5186844193        0.9091690432
C               -1.0670265219        6.8356471630        3.2455890432
C               16.5673391665        4.3418956560        6.1000909568
C                9.9098084781       12.1767887633        1.4272509568
C                6.4533573554        2.4937515070        3.7636709568
C                6.6166460552       15.6526104306        6.1702210572
C               -5.8870462960       16.9163142826        1.4973810572
C               -0.7295997591        5.4559471394        3.8338010572
C               17.5934810551        3.3598254957        5.5118789428
C               10.2472352409       13.5564887869        0.8390389428
C                5.0897887040        2.0961216437        3.1754589428
C                5.4545536864       15.4149744930        1.4024077171
C               -5.1002013528       16.0287307385        3.7388277171
C               -0.3543523335        6.5811666211        6.0752477171
C               16.4313886863        3.5974614333        3.2704322829
C               10.6224826665       12.4312693052        5.6068522829
C                5.8766336472        2.9837051878        0.9340122829
C                6.8094375411       15.3866275687        0.6689813319
C               -5.7530941236       17.2162680380        3.0054013319
C               -1.0563434174        5.4219762459        5.3418213319
C               17.7862725410        3.6258083576        4.0038586681
C                9.9204915825       13.5904596804        6.3402786681
C                5.2237408764        1.7961678883        1.6674386681
C                3.0593088914       14.5104522687        1.4076256534
C               -3.1192397308       14.4066490098        3.7440456534
C                0.0599308395        9.1077705740        6.0804656534
C               14.0361438914        4.5019836576        3.2652143466
C               11.0367658395        9.9046653523        5.6016343466
C                7.8575952692        4.6057869165        0.9287943466
N                4.3080801018       14.7800678148        6.3178002122
N               -3.9771192482       15.3533088286        1.6449602122
N               -0.3309608536        7.8914952092        3.9813802122
N               15.2849151017        4.2323681115        5.3642997878
N               10.6458741464       11.1209407171        0.6914597878
N                6.9997157518        3.6591270977        3.0278797878
N                3.0095227527       13.9092787781        2.7849860855
N               -2.5737151465       14.6641196944        5.1214060855
N               -0.4358076061        9.4514733801        0.4485660855
N               13.9863577527        5.1031571482        1.8878539145
N               10.5410273939        9.5609625462        4.2242739145
N                8.4031198535        4.3483162319        6.5606939145



     Writing config-only to output data dir ./tmp/a_MOF.save/ :
     XML data file
     NEW-OLD atomic charge density approx. for the potential

     Check: negative core charge=   -0.000001

     negative rho (up, down):  1.282E-04 0.000E+00

     total cpu time spent up to now is     2780.3 secs

     per-process dynamical memory:   352.1 Mb

     Self-consistent Calculation

     iteration #  1     ecut=    60.00 Ry     beta= 0.30
     Davidson diagonalization with overlap
     ethr =  1.00E-06,  avg # of iterations =  3.0

     Threshold (ethr) on eigenvalues was too large:
     Diagonalizing with lowered threshold

     Davidson diagonalization with overlap
     ethr =  2.09E-08,  avg # of iterations =  5.0

     negative rho (up, down):  1.285E-04 0.000E+00

     total cpu time spent up to now is     2948.5 secs

     total energy              =   -2833.91881990 Ry
     estimated scf accuracy    <       0.00016655 Ry

     iteration #  2     ecut=    60.00 Ry     beta= 0.30
     Davidson diagonalization with overlap
     ethr =  2.80E-08,  avg # of iterations =  2.0

     negative rho (up, down):  1.290E-04 0.000E+00

     total cpu time spent up to now is     3010.3 secs

     total energy              =   -2833.91882244 Ry
     estimated scf accuracy    <       0.00006002 Ry

     iteration #  3     ecut=    60.00 Ry     beta= 0.30
     Davidson diagonalization with overlap
     ethr =  1.01E-08,  avg # of iterations =  2.0

     negative rho (up, down):  1.292E-04 0.000E+00

     total cpu time spent up to now is     3081.0 secs

     total energy              =   -2833.91883144 Ry
     estimated scf accuracy    <       0.00000766 Ry

     iteration #  4     ecut=    60.00 Ry     beta= 0.30
     Davidson diagonalization with overlap
     ethr =  1.29E-09,  avg # of iterations =  3.5

     negative rho (up, down):  1.292E-04 0.000E+00

     total cpu time spent up to now is     3157.0 secs

     total energy              =   -2833.91883316 Ry
     estimated scf accuracy    <       0.00000119 Ry

     iteration #  5     ecut=    60.00 Ry     beta= 0.30
     Davidson diagonalization with overlap
     ethr =  2.00E-10,  avg # of iterations =  6.0

     negative rho (up, down):  1.292E-04 0.000E+00

     total cpu time spent up to now is     3230.0 secs

     total energy              =   -2833.91883338 Ry
     estimated scf accuracy    <       0.00000025 Ry

     iteration #  6     ecut=    60.00 Ry     beta= 0.30
     Davidson diagonalization with overlap
     ethr =  4.23E-11,  avg # of iterations =  5.0

     negative rho (up, down):  1.292E-04 0.000E+00

     total cpu time spent up to now is     3320.3 secs

     total energy              =   -2833.91883343 Ry
     estimated scf accuracy    <       0.00000011 Ry

     iteration #  7     ecut=    60.00 Ry     beta= 0.30
     Davidson diagonalization with overlap
     ethr =  1.92E-11,  avg # of iterations =  7.5

     negative rho (up, down):  1.292E-04 0.000E+00

     total cpu time spent up to now is     3414.4 secs

     total energy              =   -2833.91883354 Ry
     estimated scf accuracy    <       0.00000006 Ry

     iteration #  8     ecut=    60.00 Ry     beta= 0.30
     Davidson diagonalization with overlap
     ethr =  1.05E-11,  avg # of iterations =  5.0

     negative rho (up, down):  1.292E-04 0.000E+00

     total cpu time spent up to now is     3500.7 secs

     total energy              =   -2833.91883358 Ry
     estimated scf accuracy    <          8.3E-09 Ry

     iteration #  9     ecut=    60.00 Ry     beta= 0.30
     Davidson diagonalization with overlap
     ethr =  1.40E-12,  avg # of iterations =  6.5

     negative rho (up, down):  1.292E-04 0.000E+00

     total cpu time spent up to now is     3585.4 secs

     End of self-consistent calculation

          k = 0.0000 0.0000 0.0000 (154911 PWs)   bands (ev):

   -22.4525 -22.4524 -22.3102 -22.3102 -22.3101 -22.3101 -20.5184 -20.5180
   -20.5032 -20.5032 -20.5027 -20.5027 -20.0291 -20.0288 -20.0126 -20.0126
   -20.0124 -20.0124 -18.7443 -18.7443 -18.7431 -18.7431 -18.7417 -18.7405
   -18.1640 -18.1640 -18.1626 -18.1626 -18.1611 -18.1597 -17.1257 -17.1168
   -17.1168 -16.4854 -16.4639 -16.4639 -15.4417 -15.4417 -15.4416 -15.3791
   -15.3791 -15.3790 -14.8198 -14.8129 -14.8129 -14.8095 -14.8087 -14.8087
   -14.7079 -14.6523 -14.6523 -14.5407 -14.5316 -14.5316 -14.2999 -14.2999
   -14.2898 -13.1430 -13.0681 -13.0681 -12.7700 -12.7700 -12.7634 -12.7553
   -12.7553 -12.7514 -11.7192 -11.7192 -11.7175 -11.6871 -11.6871 -11.6815
   -11.6587 -11.6587 -11.6453 -11.2852 -11.2852 -11.2542 -10.8140 -10.8140
   -10.8082 -10.8033 -10.7883 -10.7883 -10.7756 -10.6911 -10.6911 -10.3776
   -10.3776 -10.3351  -9.8330  -9.7808  -9.7760  -9.7760  -9.7361  -9.7313
    -9.7313  -9.5553  -9.5553  -9.4744  -8.9714  -8.9714  -8.7901  -8.7832
    -8.7726  -8.7726  -8.7566  -8.7566  -8.5992  -8.5992  -8.5085  -8.4613
    -8.4613  -8.4347  -8.3984  -8.3854  -8.3854  -8.1019  -8.1019  -7.9090
    -7.7824  -7.7751  -7.7751  -7.7024  -7.7024  -7.6285  -7.5438  -7.5438
    -7.4956  -7.4449  -7.4412  -7.4412  -7.4139  -7.4139  -7.3250  -7.3155
    -7.3155  -7.3104  -7.2595  -7.2595  -7.1651  -7.1607  -7.1546  -7.1546
    -7.0833  -7.0833  -6.9906  -6.9906  -6.9905  -6.9282  -6.9282  -6.7890
    -6.7336  -6.6807  -6.6807  -6.6294  -6.6071  -6.6071  -6.5962  -6.5810
    -6.5810  -6.5476  -6.5476  -6.5286  -6.5055  -6.3999  -6.3737  -6.2766
    -6.2766  -6.2598  -6.2598  -6.1847  -6.1847  -6.1626  -6.1488  -6.1488
    -6.1262  -6.0895  -6.0895  -6.0508  -6.0172  -6.0172  -5.9944  -5.7357
    -5.7221  -5.7137  -5.7137  -5.7065  -5.7065  -5.6093  -5.6093  -5.5049
    -5.4855  -5.4855  -5.4850  -5.4120  -5.4120  -5.3862  -5.3519  -5.3294
    -5.3294  -5.3056  -5.3035  -5.3035  -5.1878  -5.1637  -5.1637  -5.1191
    -5.1153  -5.1153  -5.0002  -5.0002  -4.9859  -4.8440  -4.8440  -4.7387
    -4.5280  -4.5280  -4.4667  -4.4667  -4.4460  -4.4351  -4.3758  -4.3640
    -4.3640  -4.2994  -4.2994  -4.2586  -4.2278  -4.2278  -4.2220  -4.2085
    -4.1801  -4.1801  -4.0498  -4.0498  -4.0353  -4.0246  -3.9773  -3.9773
    -3.9266  -3.9266  -3.8701  -3.8672  -3.8188  -3.8188  -3.8171  -3.7048
    -3.6843  -3.6843  -3.4777  -3.4777  -3.4630  -3.4630  -3.4402  -3.1696
    -3.1696  -3.1175  -3.0984  -3.0765  -3.0765  -2.8627  -2.8627  -2.7879
    -2.7879  -2.6470  -2.6434  -2.5493  -2.5493  -2.5424  -2.5424  -2.4781
    -2.4705  -2.2284  -2.2284  -2.2160  -2.2160  -2.1912  -2.1811  -2.0063
    -2.0063  -1.9793  -1.9793  -1.8259  -1.8258  -1.6171  -1.6171  -1.5459
    -1.3968  -1.3936  -1.3936  -1.3551  -1.3551  -1.3536  -0.7156  -0.7156
    -0.6382

          k = 0.0000 0.0000-1.5660 (154844 PWs)   bands (ev):

   -22.3927 -22.3927 -22.3926 -22.3926 -22.2791 -22.2791 -20.5504 -20.5504
   -20.5501 -20.5501 -20.4893 -20.4888 -20.0074 -20.0074 -20.0070 -20.0070
   -19.9841 -19.9839 -18.7083 -18.7071 -18.7052 -18.7052 -18.7040 -18.7040
   -18.2163 -18.2150 -18.2122 -18.2122 -18.2109 -18.2109 -17.1067 -17.1067
   -17.1063 -16.4733 -16.4733 -16.4707 -15.4369 -15.4369 -15.4369 -15.3743
   -15.3743 -15.3743 -14.8091 -14.8091 -14.8086 -14.8056 -14.8055 -14.8055
   -14.6676 -14.6676 -14.6529 -14.5832 -14.5832 -14.5781 -14.2920 -14.2920
   -14.2852 -13.1063 -13.1063 -13.0769 -12.7790 -12.7733 -12.7733 -12.7658
   -12.7596 -12.7596 -11.7018 -11.7018 -11.6577 -11.6425 -11.6401 -11.6401
   -11.5882 -11.5833 -11.5833 -11.2408 -11.2408 -11.1805 -10.8455 -10.8434
   -10.8434 -10.8202 -10.8174 -10.8174 -10.7026 -10.7026 -10.6336 -10.3808
   -10.3808 -10.3472  -9.7933  -9.7933  -9.7836  -9.7532  -9.7532  -9.7400
    -9.7396  -9.7396  -9.5804  -9.2953  -9.2953  -8.9192  -8.8609  -8.8609
    -8.8581  -8.8581  -8.8238  -8.8180  -8.5337  -8.4364  -8.4364  -8.2348
    -8.2348  -8.2208  -8.1545  -8.1545  -8.1483  -8.0433  -7.9915  -7.9915
    -7.9317  -7.9317  -7.8685  -7.6841  -7.5994  -7.5994  -7.5389  -7.5389
    -7.5389  -7.5036  -7.4871  -7.4871  -7.4138  -7.4044  -7.3658  -7.3658
    -7.3507  -7.2845  -7.2845  -7.2657  -7.2437  -7.2437  -7.2033  -7.2033
    -7.0331  -7.0015  -6.9484  -6.9484  -6.8545  -6.8545  -6.8161  -6.7307
    -6.7307  -6.7203  -6.6685  -6.6685  -6.6428  -6.5981  -6.5703  -6.5703
    -6.5398  -6.5398  -6.4914  -6.4914  -6.4793  -6.4556  -6.4024  -6.4024
    -6.3730  -6.3730  -6.3525  -6.3525  -6.3249  -6.2772  -6.2711  -6.2711
    -6.2056  -6.1918  -6.1918  -6.1878  -6.1878  -6.1736  -6.1239  -6.1081
    -6.0662  -6.0662  -5.9512  -5.9153  -5.9153  -5.6432  -5.6432  -5.6242
    -5.5783  -5.4998  -5.4998  -5.4683  -5.4683  -5.4058  -5.3837  -5.3837
    -5.3809  -5.3323  -5.2947  -5.2947  -5.1560  -5.1537  -5.1537  -5.1066
    -5.1066  -5.1034  -4.8181  -4.8181  -4.8112  -4.7679  -4.7679  -4.6862
    -4.5987  -4.5049  -4.4789  -4.4789  -4.4577  -4.4577  -4.3545  -4.3541
    -4.3541  -4.2213  -4.2213  -4.2152  -4.1908  -4.1908  -4.1695  -4.1560
    -4.1539  -4.1539  -4.0575  -4.0216  -4.0216  -3.9839  -3.9839  -3.9084
    -3.9023  -3.7720  -3.6880  -3.6560  -3.6560  -3.5061  -3.5061  -3.5012
    -3.4889  -3.4889  -3.4810  -3.4494  -3.4494  -3.3727  -3.3727  -3.1037
    -3.0205  -3.0107  -3.0107  -2.9863  -2.9863  -2.9006  -2.8545  -2.8545
    -2.8168  -2.8168  -2.8015  -2.5276  -2.5233  -2.4869  -2.4869  -2.4796
    -2.4796  -2.2940  -2.2583  -2.2583  -2.2174  -2.1713  -2.1713  -2.0200
    -2.0200  -2.0049  -2.0049  -2.0016  -1.9672  -1.6019  -1.6019  -1.5433
    -1.3903  -1.3903  -1.3816  -1.3559  -1.3559  -1.3507  -0.6942  -0.6759
    -0.6759

     highest occupied level (ev):    -0.6382

!    total energy              =   -2833.91883360 Ry
     estimated scf accuracy    <          1.8E-09 Ry

     The total energy is the sum of the following terms:
     one-electron contribution =   -6465.53203733 Ry
     hartree contribution      =    3421.18898442 Ry
     xc contribution           =    -673.80903626 Ry
     ewald contribution        =    1777.21479997 Ry
     one-center paw contrib.   =    -892.98154439 Ry

     convergence has been achieved in   9 iterations

     negative rho (up, down):  1.292E-04 0.000E+00

     Forces acting on atoms (cartesian axes, Ry/au):

     atom    1 type  1   force =    -0.00017120   -0.00006182   -0.00024720
     atom    2 type  1   force =     0.00013914   -0.00011735   -0.00024720
     atom    3 type  1   force =     0.00003206    0.00017917   -0.00024720
     atom    4 type  1   force =    -0.00017120    0.00006182    0.00024720
     atom    5 type  1   force =     0.00003206   -0.00017917    0.00024720
     atom    6 type  1   force =     0.00013914    0.00011735    0.00024720
     atom    7 type  2   force =     0.00121762   -0.00045761    0.00002815
     atom    8 type  2   force =    -0.00021251    0.00128330    0.00002815
     atom    9 type  2   force =    -0.00100511   -0.00082569    0.00002815
     atom   10 type  2   force =     0.00121762    0.00045761   -0.00002815
     atom   11 type  2   force =    -0.00100511    0.00082569   -0.00002815
     atom   12 type  2   force =    -0.00021251   -0.00128330   -0.00002815
     atom   13 type  2   force =    -0.00026847   -0.00070208   -0.00029968
     atom   14 type  2   force =     0.00074225    0.00011854   -0.00029968
     atom   15 type  2   force =    -0.00047378    0.00058354   -0.00029968
     atom   16 type  2   force =    -0.00026847    0.00070208    0.00029968
     atom   17 type  2   force =    -0.00047378   -0.00058354    0.00029968
     atom   18 type  2   force =     0.00074225   -0.00011854    0.00029968
     atom   19 type  2   force =    -0.00013555   -0.00038596   -0.00082784
     atom   20 type  2   force =     0.00040203    0.00007559   -0.00082784
     atom   21 type  2   force =    -0.00026648    0.00031037   -0.00082784
     atom   22 type  2   force =    -0.00013555    0.00038596    0.00082784
     atom   23 type  2   force =    -0.00026648   -0.00031037    0.00082784
     atom   24 type  2   force =     0.00040203   -0.00007559    0.00082784
     atom   25 type  3   force =     0.00067826    0.00002469   -0.00000397
     atom   26 type  3   force =    -0.00036051    0.00057504   -0.00000397
     atom   27 type  3   force =    -0.00031774   -0.00059974   -0.00000397
     atom   28 type  3   force =     0.00067826   -0.00002469    0.00000397
     atom   29 type  3   force =    -0.00031774    0.00059974    0.00000397
     atom   30 type  3   force =    -0.00036051   -0.00057504    0.00000397
     atom   31 type  3   force =    -0.00002583    0.00017020    0.00005932
     atom   32 type  3   force =    -0.00013449   -0.00010747    0.00005932
     atom   33 type  3   force =     0.00016032   -0.00006273    0.00005932
     atom   34 type  3   force =    -0.00002583   -0.00017020   -0.00005932
     atom   35 type  3   force =     0.00016032    0.00006273   -0.00005932
     atom   36 type  3   force =    -0.00013449    0.00010747   -0.00005932
     atom   37 type  3   force =    -0.00095177    0.00049661    0.00076794
     atom   38 type  3   force =     0.00004581   -0.00107256    0.00076794
     atom   39 type  3   force =     0.00090596    0.00057595    0.00076794
     atom   40 type  3   force =    -0.00095177   -0.00049661   -0.00076794
     atom   41 type  3   force =     0.00090596   -0.00057595   -0.00076794
     atom   42 type  3   force =     0.00004581    0.00107256   -0.00076794
     atom   43 type  3   force =    -0.00015360    0.00006371   -0.00002735
     atom   44 type  3   force =     0.00002162   -0.00016487   -0.00002735
     atom   45 type  3   force =     0.00013197    0.00010116   -0.00002735
     atom   46 type  3   force =    -0.00015360   -0.00006371    0.00002735
     atom   47 type  3   force =     0.00013197   -0.00010116    0.00002735
     atom   48 type  3   force =     0.00002162    0.00016487    0.00002735
     atom   49 type  3   force =    -0.00052865   -0.00060442   -0.00042604
     atom   50 type  3   force =     0.00078777   -0.00015561   -0.00042604
     atom   51 type  3   force =    -0.00025912    0.00076003   -0.00042604
     atom   52 type  3   force =    -0.00052865    0.00060442    0.00042604
     atom   53 type  3   force =    -0.00025912   -0.00076003    0.00042604
     atom   54 type  3   force =     0.00078777    0.00015561    0.00042604
     atom   55 type  3   force =     0.00001449   -0.00016948    0.00114099
     atom   56 type  3   force =     0.00013953    0.00009729    0.00114099
     atom   57 type  3   force =    -0.00015402    0.00007219    0.00114099
     atom   58 type  3   force =     0.00001449    0.00016948   -0.00114099
     atom   59 type  3   force =    -0.00015402   -0.00007219   -0.00114099
     atom   60 type  3   force =     0.00013953   -0.00009729   -0.00114099
     atom   61 type  3   force =    -0.00008905    0.00004426    0.00280428
     atom   62 type  3   force =     0.00000619   -0.00009925    0.00280428
     atom   63 type  3   force =     0.00008286    0.00005499    0.00280428
     atom   64 type  3   force =    -0.00008905   -0.00004426   -0.00280428
     atom   65 type  3   force =     0.00008286   -0.00005499   -0.00280428
     atom   66 type  3   force =     0.00000619    0.00009925   -0.00280428
     atom   67 type  3   force =     0.00011029    0.00021353   -0.00089110
     atom   68 type  3   force =    -0.00024006   -0.00001125   -0.00089110
     atom   69 type  3   force =     0.00012977   -0.00020228   -0.00089110
     atom   70 type  3   force =     0.00011029   -0.00021353    0.00089110
     atom   71 type  3   force =     0.00012977    0.00020228    0.00089110
     atom   72 type  3   force =    -0.00024006    0.00001125    0.00089110
     atom   73 type  3   force =     0.00109388    0.00058769   -0.00250218
     atom   74 type  3   force =    -0.00105589    0.00065348   -0.00250218
     atom   75 type  3   force =    -0.00003798   -0.00124117   -0.00250218
     atom   76 type  3   force =     0.00109388   -0.00058769    0.00250218
     atom   77 type  3   force =    -0.00003798    0.00124117    0.00250218
     atom   78 type  3   force =    -0.00105589   -0.00065348    0.00250218
     atom   79 type  3   force =     0.00045936    0.00010569   -0.00015873
     atom   80 type  3   force =    -0.00032121    0.00034497   -0.00015873
     atom   81 type  3   force =    -0.00013815   -0.00045066   -0.00015873
     atom   82 type  3   force =     0.00045936   -0.00010569    0.00015873
     atom   83 type  3   force =    -0.00013815    0.00045066    0.00015873
     atom   84 type  3   force =    -0.00032121   -0.00034497    0.00015873
     atom   85 type  3   force =     0.00052988    0.00054836    0.00083132
     atom   86 type  3   force =    -0.00073984    0.00018471    0.00083132
     atom   87 type  3   force =     0.00020995   -0.00073307    0.00083132
     atom   88 type  3   force =     0.00052988   -0.00054836   -0.00083132
     atom   89 type  3   force =     0.00020995    0.00073307   -0.00083132
     atom   90 type  3   force =    -0.00073984   -0.00018471   -0.00083132
     atom   91 type  3   force =     0.00038392    0.00028480    0.00011199
     atom   92 type  3   force =    -0.00043860    0.00019008    0.00011199
     atom   93 type  3   force =     0.00005468   -0.00047488    0.00011199
     atom   94 type  3   force =     0.00038392   -0.00028480   -0.00011199
     atom   95 type  3   force =     0.00005468    0.00047488   -0.00011199
     atom   96 type  3   force =    -0.00043860   -0.00019008   -0.00011199
     atom   97 type  3   force =     0.00004990   -0.00012222   -0.00082711
     atom   98 type  3   force =     0.00008089    0.00010432   -0.00082711
     atom   99 type  3   force =    -0.00013079    0.00001790   -0.00082711
     atom  100 type  3   force =     0.00004990    0.00012222    0.00082711
     atom  101 type  3   force =    -0.00013079   -0.00001790    0.00082711
     atom  102 type  3   force =     0.00008089   -0.00010432    0.00082711
     atom  103 type  3   force =    -0.00052134    0.00008734   -0.00021874
     atom  104 type  3   force =     0.00018503   -0.00049517   -0.00021874
     atom  105 type  3   force =     0.00033631    0.00040782   -0.00021874
     atom  106 type  3   force =    -0.00052134   -0.00008734    0.00021874
     atom  107 type  3   force =     0.00033631   -0.00040782    0.00021874
     atom  108 type  3   force =     0.00018503    0.00049517    0.00021874
     atom  109 type  3   force =    -0.00014526   -0.00022334    0.00034005
     atom  110 type  3   force =     0.00026605   -0.00001412    0.00034005
     atom  111 type  3   force =    -0.00012079    0.00023747    0.00034005
     atom  112 type  3   force =    -0.00014526    0.00022334   -0.00034005
     atom  113 type  3   force =    -0.00012079   -0.00023747   -0.00034005
     atom  114 type  3   force =     0.00026605    0.00001412   -0.00034005
     atom  115 type  3   force =     0.00004895   -0.00006540   -0.00028397
     atom  116 type  3   force =     0.00003216    0.00007509   -0.00028397
     atom  117 type  3   force =    -0.00008111   -0.00000969   -0.00028397
     atom  118 type  3   force =     0.00004895    0.00006540    0.00028397
     atom  119 type  3   force =    -0.00008111    0.00000969    0.00028397
     atom  120 type  3   force =     0.00003216   -0.00007509    0.00028397
     atom  121 type  3   force =    -0.00004459   -0.00005261   -0.00021163
     atom  122 type  3   force =     0.00006786   -0.00001231   -0.00021163
     atom  123 type  3   force =    -0.00002327    0.00006493   -0.00021163
     atom  124 type  3   force =    -0.00004459    0.00005261    0.00021163
     atom  125 type  3   force =    -0.00002327   -0.00006493    0.00021163
     atom  126 type  3   force =     0.00006786    0.00001231    0.00021163
     atom  127 type  4   force =     0.00012562    0.00071542   -0.00108515
     atom  128 type  4   force =    -0.00068238   -0.00024892   -0.00108515
     atom  129 type  4   force =     0.00055676   -0.00046650   -0.00108515
     atom  130 type  4   force =     0.00012562   -0.00071542    0.00108515
     atom  131 type  4   force =     0.00055676    0.00046650    0.00108515
     atom  132 type  4   force =    -0.00068238    0.00024892    0.00108515
     atom  133 type  4   force =     0.00021893    0.00017692    0.00000973
     atom  134 type  4   force =    -0.00026268    0.00010114    0.00000973
     atom  135 type  4   force =     0.00004375   -0.00027806    0.00000973
     atom  136 type  4   force =     0.00021893   -0.00017692   -0.00000973
     atom  137 type  4   force =     0.00004375    0.00027806   -0.00000973
     atom  138 type  4   force =    -0.00026268   -0.00010114   -0.00000973
     atom  139 type  4   force =    -0.00041530   -0.00083364    0.00056647
     atom  140 type  4   force =     0.00092960    0.00005716    0.00056647
     atom  141 type  4   force =    -0.00051430    0.00077648    0.00056647
     atom  142 type  4   force =    -0.00041530    0.00083364   -0.00056647
     atom  143 type  4   force =    -0.00051430   -0.00077648   -0.00056647
     atom  144 type  4   force =     0.00092960   -0.00005716   -0.00056647
     atom  145 type  4   force =     0.00049304   -0.00108730    0.00044649
     atom  146 type  4   force =     0.00069511    0.00097063    0.00044649
     atom  147 type  4   force =    -0.00118815    0.00011666    0.00044649
     atom  148 type  4   force =     0.00049304    0.00108730   -0.00044649
     atom  149 type  4   force =    -0.00118815   -0.00011666   -0.00044649
     atom  150 type  4   force =     0.00069511   -0.00097063   -0.00044649
     atom  151 type  4   force =    -0.00023451   -0.00012350   -0.00004143
     atom  152 type  4   force =     0.00022420   -0.00014134   -0.00004143
     atom  153 type  4   force =     0.00001030    0.00026484   -0.00004143
     atom  154 type  4   force =    -0.00023451    0.00012350    0.00004143
     atom  155 type  4   force =     0.00001030   -0.00026484    0.00004143
     atom  156 type  4   force =     0.00022420    0.00014134    0.00004143
     atom  157 type  4   force =    -0.00004460   -0.00038570    0.00042366
     atom  158 type  4   force =     0.00035632    0.00015422    0.00042366
     atom  159 type  4   force =    -0.00031172    0.00023147    0.00042366
     atom  160 type  4   force =    -0.00004460    0.00038570   -0.00042366
     atom  161 type  4   force =    -0.00031172   -0.00023147   -0.00042366
     atom  162 type  4   force =     0.00035632   -0.00015422   -0.00042366
     atom  163 type  4   force =    -0.00091176    0.00111638    0.00130882
     atom  164 type  4   force =    -0.00051093   -0.00134780    0.00130882
     atom  165 type  4   force =     0.00142269    0.00023142    0.00130882
     atom  166 type  4   force =    -0.00091176   -0.00111638   -0.00130882
     atom  167 type  4   force =     0.00142269   -0.00023142   -0.00130882
     atom  168 type  4   force =    -0.00051093    0.00134780   -0.00130882
     atom  169 type  4   force =     0.00012429   -0.00009381   -0.00010755
     atom  170 type  4   force =     0.00001909    0.00015454   -0.00010755
     atom  171 type  4   force =    -0.00014338   -0.00006073   -0.00010755
     atom  172 type  4   force =     0.00012429    0.00009381    0.00010755
     atom  173 type  4   force =    -0.00014338    0.00006073    0.00010755
     atom  174 type  4   force =     0.00001909   -0.00015454    0.00010755
     atom  175 type  4   force =    -0.00039480   -0.00066317   -0.00156505
     atom  176 type  4   force =     0.00077172   -0.00001032   -0.00156505
     atom  177 type  4   force =    -0.00037692    0.00067349   -0.00156505
     atom  178 type  4   force =    -0.00039480    0.00066317    0.00156505
     atom  179 type  4   force =    -0.00037692   -0.00067349    0.00156505
     atom  180 type  4   force =     0.00077172    0.00001032    0.00156505
     atom  181 type  4   force =     0.00041091   -0.00009599    0.00017404
     atom  182 type  4   force =    -0.00012232    0.00040385    0.00017404
     atom  183 type  4   force =    -0.00028858   -0.00030786    0.00017404
     atom  184 type  4   force =     0.00041091    0.00009599   -0.00017404
     atom  185 type  4   force =    -0.00028858    0.00030786   -0.00017404
     atom  186 type  4   force =    -0.00012232   -0.00040385   -0.00017404
     atom  187 type  4   force =    -0.00010563    0.00044123    0.00141832
     atom  188 type  4   force =    -0.00032930   -0.00031209    0.00141832
     atom  189 type  4   force =     0.00043493   -0.00012914    0.00141832
     atom  190 type  4   force =    -0.00010563   -0.00044123   -0.00141832
     atom  191 type  4   force =     0.00043493    0.00012914   -0.00141832
     atom  192 type  4   force =    -0.00032930    0.00031209   -0.00141832
     atom  193 type  4   force =     0.00010802    0.00047787   -0.00033841
     atom  194 type  4   force =    -0.00046786   -0.00014539   -0.00033841
     atom  195 type  4   force =     0.00035984   -0.00033248   -0.00033841
     atom  196 type  4   force =     0.00010802   -0.00047787    0.00033841
     atom  197 type  4   force =     0.00035984    0.00033248    0.00033841
     atom  198 type  4   force =    -0.00046786    0.00014539    0.00033841
     atom  199 type  4   force =    -0.00020659    0.00013821    0.00036161
     atom  200 type  4   force =    -0.00001640   -0.00024801    0.00036161
     atom  201 type  4   force =     0.00022298    0.00010981    0.00036161
     atom  202 type  4   force =    -0.00020659   -0.00013821   -0.00036161
     atom  203 type  4   force =     0.00022298   -0.00010981   -0.00036161
     atom  204 type  4   force =    -0.00001640    0.00024801   -0.00036161
     atom  205 type  5   force =     0.00001922   -0.00002629    0.00042269
     atom  206 type  5   force =     0.00001316    0.00002979    0.00042269
     atom  207 type  5   force =    -0.00003238   -0.00000350    0.00042269
     atom  208 type  5   force =     0.00001922    0.00002629   -0.00042269
     atom  209 type  5   force =    -0.00003238    0.00000350   -0.00042269
     atom  210 type  5   force =     0.00001316   -0.00002979   -0.00042269
     atom  211 type  5   force =    -0.00018800   -0.00029586   -0.00000175
     atom  212 type  5   force =     0.00035022   -0.00001488   -0.00000175
     atom  213 type  5   force =    -0.00016222    0.00031074   -0.00000175
     atom  214 type  5   force =    -0.00018800    0.00029586    0.00000175
     atom  215 type  5   force =    -0.00016222   -0.00031074    0.00000175
     atom  216 type  5   force =     0.00035022    0.00001488    0.00000175

     Total force =     0.015970     Total SCF correction =     0.000098
     Energy error            =      5.1E-04 Ry
     Gradient error          =      2.8E-03 Ry/Bohr

     number of scf cycles    =   4
     number of bfgs steps    =   3

     energy             old  =   -2833.9183192311 Ry
     energy             new  =   -2833.9188335968 Ry

     CASE: energy            _new < energy            _old

     new trust radius        =       0.0081130678 bohr
     new conv_thr            =       0.0000000028 Ry


ATOMIC_POSITIONS (angstrom)
Mg              10.2295215654        5.4276609181        5.8279281248
Mg              12.1384169791        6.1451950852        1.1550881248
Mg              10.5625664555        7.4395799231        3.4915081248
Mg              -0.7473134346       13.5847750082        5.8541718752
Mg              -0.4142685445       11.5728560032        1.1813318752
Mg               1.1615819791       12.8672408411        3.5177518752
O               11.4451754214        4.4593310101        0.1795990509
O               12.3691883507        7.6821471607        2.5160190509
O                9.1161412279        6.8709577556        4.8524390509
O                0.4683404215       14.5531049162        4.4932409491
O               -1.8606937721       12.1414781707        6.8296609491
O                1.3923533507       11.3302887656        2.1568209491
O               10.8166925897        5.4814287843        2.6541677579
O               11.7982671290        6.6268161755        4.9905877579
O               10.3155452814        6.9041909666        0.3177477579
O               -0.1601424103       13.5310071420        2.0186722421
O               -0.6612897186       12.1082449597        4.3550922421
O                0.8214321290       12.3856197508        6.6915122421
O               10.2339915592        4.0570088804        4.2820879058
O               13.3232014666        6.8343922322        6.6185079058
O                9.3733119743        8.1210348137        1.9456679058
O               -0.7428434408       14.9554270459        0.3907520942
O               -1.6035230257       10.8914011126        2.7271720942
O                2.3463664666       12.1780436941        5.0635920942
H               10.5690558648        1.7587330873        3.7753323661
H               15.1460345355        8.2737043293        6.1117523661
H                7.2154145996        8.9799985097        1.4389123661
H               -0.4077791352       17.2537028390        0.8975076339
H               -3.7614204004       10.0324374166        3.2339276339
H                4.1691995355       10.7387315970        5.5703476339
H                0.8059715211       18.9792158577        0.0620651299
H               -5.8626338372       10.2208198093        2.3984851299
H                5.0566623162        8.8248361855        4.7349051299
H               11.7828065210        0.0332200686        4.6107748701
H               16.0334973162       10.1875997408        6.9471948701
H                5.1142011628        8.7916161170        2.2743548701
H               11.8808304615        2.2068125117        6.0401054660
H               14.1020990727        9.1856947420        1.3672654660
H                6.9475754657        7.6199286726        3.7036854660
H                0.9039954616       16.8056234146        5.6419945340
H               -4.0292595343       11.3925072537        0.9691545340
H                3.1252640727        9.8267411843        3.3055745340
H                2.7231696452       15.5475859804        1.4784452283
H               -3.8493542492       13.5969770277        3.8148652283
H                1.1261846040        8.8803088445        6.1512852283
H               13.7000046452        3.4648499459        3.1943947717
H               12.1030196039       10.1321270818        5.5308147717
H                7.1274807508        5.4154588986        0.8579747717
H                3.6213996400       14.1510154094        5.8987860666
H               -3.0890036538       15.0731523070        1.2259460666
H               -0.5323959861        8.8007041361        3.5623660666
H               14.5982346400        4.8614205169        5.7833139334
H               10.4444390139       10.2117317902        1.1104739334
H                7.8878313462        3.9392836193        3.4468939334
H                6.0018708060       13.6422966309        5.6231118135
H               -3.8386758513       17.3890601991        0.9502718135
H               -2.1631949546        6.9935150226        3.2866918135
H               16.9787058060        5.3701392954        6.0589881865
H                8.8136400454       12.0189209037        1.3861481865
H                7.1381591486        1.6233757272        3.7225681865
H                5.4028356212       14.9014909640        4.5329519103
H               -4.6296525397       16.2406833447        6.8693719103
H               -0.7731830815        6.8826975438        2.1965319103
H               16.3796706212        4.1109449623        0.1398880897
H               10.2036519185       12.1297383825        2.4763080897
H                6.3471824603        2.7717525816        4.8127280897
H                5.0329659180       16.4282865046        1.3754752053
H               -5.7669614125       15.1569690153        3.7118952053
H                0.7339954946        6.4396163327        6.0483152053
H               16.0098009179        2.5841494217        3.2973647947
H               11.7108304946       12.5728195936        5.6337847947
H                5.2098735875        3.8554669110        0.9609447947
H                5.5912306796       15.1444533373        2.4523537728
H               -4.9342616562       16.2823570647        4.7887737728
H               -0.6569690233        6.5980614508        0.1159337728
H               16.5680656795        3.8679825890        2.2204862272
H               10.3198659767       12.4143744755        4.5569062272
H                6.0425733438        2.7300788616        6.8933262272
H                7.2655735011       14.3987283818        0.8068996376
H               -5.1256163114       18.1052429604        3.1433196376
H               -2.1399571897        5.5209005104        5.4797396376
H               18.2424085011        4.6137075445        3.8659403624
H                8.8368778103       13.4915354159        6.2023603624
H                5.8512186886        0.9071929659        1.5295203624
H                7.4976204049       16.1193298970        1.1033737503
H               -6.7317243852       17.4459007163        3.4397937503
H               -0.7658960196        4.4596412393        5.7762137503
H               18.4744554049        2.8931060293        3.5694662497
H               10.2109389804       14.5527946870        5.9058862497
H                4.2451106148        1.5665352100        1.2330462497
H                6.2519037051       16.6744749517        6.0199437491
H               -6.5896357554       16.0895058811        1.3471037491
H                0.3377320505        5.2608910198        3.6835237491
H               17.2287387051        2.3379609746        5.6621562509
H               11.3145670505       13.7515449065        0.9893162509
H                4.3871992446        2.9229300452        3.3257362509
H                7.5692757596       15.5582049199        5.6388966983
H               -6.2816035776       17.7885185624        0.9660566983
H               -1.2876721819        4.6781483703        3.3024766983
H               18.5461107596        3.4542310064        6.0432033017
H                9.6891628181       14.3342875560        1.3703633017
H                4.6952314224        1.2239173639        3.7067833017
H                2.3382786263       13.9793439090        0.7867344611
H               -2.2987712665       14.0477726633        3.1231544611
H               -0.0395073597        9.9977552804        5.4595744611
H               13.3151136262        5.0330920173        3.8861055389
H               10.9373276403        9.0146806459        6.2225255389
H                8.6780637334        4.9646632630        1.5496855389
H                4.8351062662       13.4141349277        0.8698211693
H               -3.0576997503       16.4926933190        3.2062411693
H               -1.7774065159        8.1180436059        5.5426611693
H               15.8119412662        5.5983009986        3.8030188307
H                9.1994284841       10.8943923204        6.1394388307
H                7.9191352497        2.5197426073        1.4665988307
H                3.6972530510       13.1539167921        2.8544784510
H               -2.2634176266       15.6373925966        5.1908984510
H               -1.4338354243        9.2335624639        0.5180584510
H               14.6740880510        5.8585191342        1.8183615490
H                9.5429995757        9.7788734624        4.1547815490
H                8.7134173734        3.3750433297        6.4912015490
H                3.2887002048       14.6038305138        3.4779758227
H               -3.3148033199       14.5586185922        5.8143958227
H                0.0261031152        8.8624227466        1.1415558227
H               14.2655352047        4.4086054125        1.1948641773
H               11.0029381152       10.1500131797        3.5312841773
H                7.6620316801        4.4538173341        5.8677041773
C               11.3174716204        3.2775608179        0.8020073928
C               13.4564832591        8.1624375209        3.1384273928
C                8.1565501206        7.5724375874        5.4748473928
C                0.3406366204       15.7348751084        3.8708326072
C               -2.8202848794       11.4399983389        6.2072526072
C                2.4796482591       10.8499984054        1.5344126072
C               10.9479307317        3.1270958317        2.1851111368
C               13.7715602039        7.9176382167        4.5215311368
C                8.2110140645        7.9677018780        6.8579511368
C               -0.0289042683       15.8853400946        2.4877288632
C               -2.7658209355       11.0447340483        4.8241488632
C                2.7947252039       11.0947977096        0.1513088632
C               10.8732153314        1.8307590834        2.7393104746
C               14.9315784598        8.5011011562        5.0757304746
C                7.1257112088        8.6805756868        0.4028904746
C               -0.1036196685       17.1816768429        1.9335295254
C               -3.8511237912       10.3318602395        4.2699495254
C                3.9547434598       10.5113347701        6.6063695254
C               11.1636870230        0.6706496353        2.0154622724
C               15.7910268673        9.3327117442        4.3518822724
C                5.9757911098        9.0090745468        6.6883022724
C                0.1868520230       18.3417862910        2.6573777276
C               -5.0010438902       10.0033613795        4.9937977276
C                4.8141918673        9.6797241821        0.3209577276
C               11.5173698702        0.8364332222        0.6532721774
C               15.4706126458        9.5561182814        2.9896921774
C                5.9425224839        8.6198844227        5.3261121774
C                0.5405348703       18.1760027041        4.0195678226
C               -5.0343125161       10.3925515036        6.3559878226
C                4.4937776458        9.4563176449        1.6831478226
C               11.5796028084        2.0917042596        0.0669755154
C               14.3523995698        8.9823780681        2.4033955154
C                6.9985026218        7.9383535986        4.7398155154
C                0.6027678085       16.9207316667        4.6058644846
C               -3.9783323782       11.0740823277        6.9422844846
C                3.3755645698       10.0300578582        2.2694444846
C               10.6503147354        4.2760546155        3.0911439011
C               12.9253407072        7.0854158114        5.4275639011
C                9.3548495573        7.6509654993        0.7547239011
C               -0.3265202646       14.7363813108        1.5816960989
C               -1.6219854427       11.3614704270        3.9181160989
C                1.9485057072       11.9270201149        6.2545360989
C                4.4474503851       14.4482894936        0.7479065530
C               -3.7594759352       15.6398961951        3.0843265530
C               -0.6879744499        7.9366861639        5.4207465530
C               15.4242853851        4.5641464327        3.9249334470
C               10.2888605501       11.0757497624        6.2613534470
C                7.2173590648        3.3725397312        1.5885134470
C                5.5903215500       14.6701471274        5.5841937560
C               -4.5230458646       16.5187228402        0.9113537560
C               -1.0672756854        6.8360018850        3.2477737560
C               16.5671565500        4.3422887989        6.0979062440
C                9.9095593146       12.1764340413        1.4250662440
C                6.4537891353        2.4937130861        3.7614862440
C                6.6175935220       15.6527090663        6.1705529100
C               -5.8876054504       16.9170854951        1.4977129100
C               -0.7299880715        5.4550772912        3.8341329100
C               17.5944285219        3.3597268600        5.5115470900
C               10.2468469285       13.5573586351        0.8387070900
C                5.0892295496        2.0953504312        3.1751270900
C                5.4546608073       15.4155890486        1.4007427263
C               -5.1007871340       16.0285162300        3.7371627263
C               -0.3538736732        6.5807665739        6.0735827263
C               16.4314958072        3.5968468777        3.2720972737
C               10.6229613268       12.4316693524        5.6085172737
C                5.8760478660        2.9839196963        0.9356772737
C                6.8102910527       15.3874029316        0.6684742807
C               -5.7541923634       17.2166195193        3.0048942807
C               -1.0560986893        5.4208494017        5.3413142807
C               17.7871260526        3.6250329947        4.0043657193
C                9.9207363106       13.5915865246        6.3407857193
C                5.2226426366        1.7958164070        1.6679457193
C                3.0588980241       14.5103683625        1.4077646680
C               -3.1189616322       14.4063351414        3.7441846680
C                0.0600636082        9.1081683486        6.0806046680
C               14.0357330241        4.5020675638        3.2650753320
C               11.0368986082        9.9042675777        5.6014953320
C                7.8578733678        4.6061007849        0.9286553320
N                4.3073991713       14.7788299269        6.3184850107
N               -3.9757067405       15.3533380695        1.6456450107
N               -0.3316924307        7.8927038563        3.9820650107
N               15.2842341712        4.2336059994        5.3636149893
N               10.6451425693       11.1197320700        0.6907749893
N                7.0011282595        3.6590978568        3.0271949893
N                3.0093407470       13.9090290516        2.7847322097
N               -2.5734078741       14.6640869360        5.1211522097
N               -0.4359328728        9.4517558650        0.4483122097
N               13.9861757470        5.1034068747        1.8881077903
N               10.5409021272        9.5606800613        4.2245277903
N                8.4034271259        4.3483489903        6.5609477903



     Writing config-only to output data dir ./tmp/a_MOF.save/ :
     XML data file
     NEW-OLD atomic charge density approx. for the potential

     Check: negative core charge=   -0.000001

     negative rho (up, down):  1.279E-04 0.000E+00

     total cpu time spent up to now is     3620.5 secs

     per-process dynamical memory:   352.1 Mb

     Self-consistent Calculation

     iteration #  1     ecut=    60.00 Ry     beta= 0.30
     Davidson diagonalization with overlap
     ethr =  1.00E-06,  avg # of iterations =  3.0

     Threshold (ethr) on eigenvalues was too large:
     Diagonalizing with lowered threshold

     Davidson diagonalization with overlap
     ethr =  1.87E-08,  avg # of iterations =  4.0

     negative rho (up, down):  1.282E-04 0.000E+00

     total cpu time spent up to now is     3776.8 secs

     total energy              =   -2833.91908211 Ry
     estimated scf accuracy    <       0.00013762 Ry

     iteration #  2     ecut=    60.00 Ry     beta= 0.30
     Davidson diagonalization with overlap
     ethr =  2.32E-08,  avg # of iterations =  2.0

     negative rho (up, down):  1.287E-04 0.000E+00

     total cpu time spent up to now is     3833.5 secs

     total energy              =   -2833.91908457 Ry
     estimated scf accuracy    <       0.00005006 Ry

     iteration #  3     ecut=    60.00 Ry     beta= 0.30
     Davidson diagonalization with overlap
     ethr =  8.43E-09,  avg # of iterations =  4.0

     negative rho (up, down):  1.288E-04 0.000E+00

     total cpu time spent up to now is     3905.1 secs

     total energy              =   -2833.91909176 Ry
     estimated scf accuracy    <       0.00000687 Ry

     iteration #  4     ecut=    60.00 Ry     beta= 0.30
     Davidson diagonalization with overlap
     ethr =  1.16E-09,  avg # of iterations =  5.0

     negative rho (up, down):  1.289E-04 0.000E+00

     total cpu time spent up to now is     3979.4 secs

     total energy              =   -2833.91909311 Ry
     estimated scf accuracy    <       0.00000129 Ry

     iteration #  5     ecut=    60.00 Ry     beta= 0.30
     Davidson diagonalization with overlap
     ethr =  2.17E-10,  avg # of iterations =  5.0

     negative rho (up, down):  1.289E-04 0.000E+00

     total cpu time spent up to now is     4049.4 secs

     total energy              =   -2833.91909333 Ry
     estimated scf accuracy    <       0.00000028 Ry

     iteration #  6     ecut=    60.00 Ry     beta= 0.30
     Davidson diagonalization with overlap
     ethr =  4.74E-11,  avg # of iterations =  6.0

     negative rho (up, down):  1.289E-04 0.000E+00

     total cpu time spent up to now is     4139.3 secs

     total energy              =   -2833.91909343 Ry
     estimated scf accuracy    <       0.00000011 Ry

     iteration #  7     ecut=    60.00 Ry     beta= 0.30
     Davidson diagonalization with overlap
     ethr =  1.86E-11,  avg # of iterations =  6.0

     negative rho (up, down):  1.289E-04 0.000E+00

     total cpu time spent up to now is     4219.9 secs

     total energy              =   -2833.91909344 Ry
     estimated scf accuracy    <       0.00000003 Ry

     iteration #  8     ecut=    60.00 Ry     beta= 0.30
     Davidson diagonalization with overlap
     ethr =  5.70E-12,  avg # of iterations =  5.5

     negative rho (up, down):  1.289E-04 0.000E+00

     total cpu time spent up to now is     4292.5 secs

     End of self-consistent calculation

          k = 0.0000 0.0000 0.0000 (154911 PWs)   bands (ev):

   -22.4514 -22.4514 -22.3104 -22.3104 -22.3103 -22.3103 -20.5153 -20.5149
   -20.4991 -20.4991 -20.4986 -20.4986 -20.0320 -20.0316 -20.0154 -20.0154
   -20.0152 -20.0152 -18.7473 -18.7473 -18.7462 -18.7462 -18.7447 -18.7435
   -18.1669 -18.1669 -18.1655 -18.1655 -18.1639 -18.1625 -17.1287 -17.1198
   -17.1198 -16.4877 -16.4661 -16.4661 -15.4446 -15.4446 -15.4446 -15.3819
   -15.3819 -15.3818 -14.8197 -14.8127 -14.8127 -14.8094 -14.8086 -14.8086
   -14.7097 -14.6543 -14.6543 -14.5429 -14.5338 -14.5338 -14.3033 -14.3033
   -14.2931 -13.1430 -13.0684 -13.0684 -12.7703 -12.7703 -12.7637 -12.7556
   -12.7556 -12.7517 -11.7202 -11.7202 -11.7184 -11.6877 -11.6877 -11.6822
   -11.6597 -11.6597 -11.6463 -11.2863 -11.2863 -11.2547 -10.8166 -10.8166
   -10.8107 -10.8049 -10.7908 -10.7908 -10.7778 -10.6919 -10.6919 -10.3783
   -10.3783 -10.3363  -9.8330  -9.7811  -9.7763  -9.7763  -9.7365  -9.7317
    -9.7317  -9.5574  -9.5574  -9.4710  -8.9698  -8.9698  -8.7930  -8.7861
    -8.7754  -8.7754  -8.7594  -8.7594  -8.5977  -8.5977  -8.5095  -8.4617
    -8.4617  -8.4353  -8.3988  -8.3858  -8.3858  -8.1016  -8.1016  -7.9057
    -7.7845  -7.7768  -7.7768  -7.7021  -7.7021  -7.6299  -7.5443  -7.5443
    -7.4979  -7.4461  -7.4424  -7.4424  -7.4152  -7.4152  -7.3237  -7.3165
    -7.3165  -7.3123  -7.2607  -7.2607  -7.1664  -7.1627  -7.1551  -7.1551
    -7.0868  -7.0868  -6.9931  -6.9913  -6.9913  -6.9284  -6.9284  -6.7901
    -6.7344  -6.6814  -6.6814  -6.6299  -6.6072  -6.6072  -6.5978  -6.5818
    -6.5818  -6.5484  -6.5484  -6.5291  -6.5062  -6.4023  -6.3761  -6.2776
    -6.2776  -6.2625  -6.2625  -6.1872  -6.1872  -6.1604  -6.1479  -6.1479
    -6.1289  -6.0884  -6.0884  -6.0489  -6.0204  -6.0204  -5.9983  -5.7389
    -5.7255  -5.7170  -5.7170  -5.7099  -5.7099  -5.6091  -5.6091  -5.5058
    -5.4847  -5.4841  -5.4841  -5.4137  -5.4137  -5.3843  -5.3523  -5.3283
    -5.3283  -5.3062  -5.3022  -5.3022  -5.1888  -5.1650  -5.1650  -5.1199
    -5.1162  -5.1162  -4.9966  -4.9966  -4.9822  -4.8463  -4.8463  -4.7413
    -4.5289  -4.5289  -4.4664  -4.4664  -4.4456  -4.4346  -4.3767  -4.3645
    -4.3645  -4.2964  -4.2964  -4.2563  -4.2267  -4.2267  -4.2206  -4.2086
    -4.1799  -4.1799  -4.0498  -4.0498  -4.0359  -4.0244  -3.9752  -3.9752
    -3.9230  -3.9230  -3.8678  -3.8639  -3.8179  -3.8179  -3.8151  -3.7027
    -3.6826  -3.6826  -3.4736  -3.4736  -3.4612  -3.4612  -3.4395  -3.1715
    -3.1715  -3.1204  -3.1014  -3.0784  -3.0784  -2.8645  -2.8645  -2.7891
    -2.7891  -2.6495  -2.6461  -2.5547  -2.5547  -2.5480  -2.5480  -2.4786
    -2.4714  -2.2293  -2.2293  -2.2172  -2.2172  -2.1921  -2.1824  -2.0059
    -2.0059  -1.9789  -1.9789  -1.8267  -1.8266  -1.6188  -1.6188  -1.5478
    -1.3941  -1.3909  -1.3909  -1.3522  -1.3522  -1.3508  -0.7142  -0.7142
    -0.6370

          k = 0.0000 0.0000-1.5660 (154844 PWs)   bands (ev):

   -22.3920 -22.3920 -22.3920 -22.3920 -22.2797 -22.2796 -20.5472 -20.5472
   -20.5469 -20.5469 -20.4852 -20.4847 -20.0100 -20.0100 -20.0096 -20.0096
   -19.9865 -19.9864 -18.7115 -18.7103 -18.7084 -18.7084 -18.7071 -18.7071
   -18.2191 -18.2178 -18.2149 -18.2149 -18.2137 -18.2137 -17.1096 -17.1096
   -17.1092 -16.4756 -16.4756 -16.4730 -15.4399 -15.4398 -15.4398 -15.3772
   -15.3771 -15.3771 -14.8087 -14.8087 -14.8082 -14.8053 -14.8052 -14.8052
   -14.6696 -14.6696 -14.6551 -14.5852 -14.5852 -14.5801 -14.2954 -14.2954
   -14.2886 -13.1064 -13.1064 -13.0772 -12.7791 -12.7734 -12.7734 -12.7660
   -12.7598 -12.7598 -11.7026 -11.7026 -11.6584 -11.6441 -11.6417 -11.6417
   -11.5897 -11.5849 -11.5849 -11.2419 -11.2419 -11.1814 -10.8486 -10.8465
   -10.8465 -10.8232 -10.8204 -10.8204 -10.7036 -10.7036 -10.6349 -10.3814
   -10.3814 -10.3480  -9.7932  -9.7932  -9.7835  -9.7535  -9.7535  -9.7399
    -9.7397  -9.7397  -9.5831  -9.2926  -9.2926  -8.9194  -8.8639  -8.8639
    -8.8611  -8.8611  -8.8268  -8.8210  -8.5322  -8.4357  -8.4357  -8.2366
    -8.2366  -8.2225  -8.1563  -8.1563  -8.1499  -8.0437  -7.9906  -7.9906
    -7.9323  -7.9323  -7.8672  -7.6848  -7.6000  -7.6000  -7.5408  -7.5408
    -7.5387  -7.5049  -7.4879  -7.4879  -7.4141  -7.4045  -7.3651  -7.3651
    -7.3507  -7.2856  -7.2856  -7.2650  -7.2447  -7.2447  -7.2039  -7.2039
    -7.0329  -7.0026  -6.9508  -6.9508  -6.8547  -6.8547  -6.8185  -6.7312
    -6.7312  -6.7216  -6.6687  -6.6687  -6.6431  -6.5983  -6.5706  -6.5706
    -6.5407  -6.5407  -6.4911  -6.4911  -6.4776  -6.4552  -6.4042  -6.4042
    -6.3735  -6.3735  -6.3544  -6.3544  -6.3252  -6.2776  -6.2695  -6.2695
    -6.2021  -6.1877  -6.1877  -6.1836  -6.1836  -6.1698  -6.1307  -6.1075
    -6.0720  -6.0720  -5.9573  -5.9209  -5.9209  -5.6444  -5.6444  -5.6245
    -5.5785  -5.5006  -5.5006  -5.4694  -5.4694  -5.4060  -5.3848  -5.3848
    -5.3819  -5.3329  -5.2942  -5.2942  -5.1569  -5.1544  -5.1544  -5.1071
    -5.1071  -5.1040  -4.8148  -4.8148  -4.8075  -4.7705  -4.7705  -4.6878
    -4.5991  -4.5045  -4.4787  -4.4787  -4.4573  -4.4573  -4.3549  -4.3549
    -4.3546  -4.2202  -4.2202  -4.2142  -4.1902  -4.1902  -4.1694  -4.1537
    -4.1514  -4.1514  -4.0577  -4.0225  -4.0225  -3.9849  -3.9849  -3.9090
    -3.8986  -3.7686  -3.6873  -3.6546  -3.6546  -3.5089  -3.5089  -3.5040
    -3.4912  -3.4912  -3.4837  -3.4492  -3.4492  -3.3723  -3.3723  -3.1042
    -3.0217  -3.0116  -3.0116  -2.9874  -2.9874  -2.9023  -2.8550  -2.8550
    -2.8168  -2.8168  -2.8029  -2.5327  -2.5284  -2.4899  -2.4899  -2.4827
    -2.4827  -2.2958  -2.2599  -2.2599  -2.2189  -2.1725  -2.1725  -2.0207
    -2.0207  -2.0052  -2.0052  -2.0015  -1.9670  -1.6037  -1.6037  -1.5454
    -1.3876  -1.3876  -1.3789  -1.3530  -1.3530  -1.3479  -0.6933  -0.6748
    -0.6748

     highest occupied level (ev):    -0.6370

!    total energy              =   -2833.91909348 Ry
     estimated scf accuracy    <          2.5E-09 Ry

     The total energy is the sum of the following terms:
     one-electron contribution =   -6465.66654818 Ry
     hartree contribution      =    3421.25783350 Ry
     xc contribution           =    -673.83564904 Ry
     ewald contribution        =    1777.30809914 Ry
     one-center paw contrib.   =    -892.98282890 Ry

     convergence has been achieved in   8 iterations

     negative rho (up, down):  1.289E-04 0.000E+00

     Forces acting on atoms (cartesian axes, Ry/au):

     atom    1 type  1   force =     0.00014539    0.00030838    0.00011752
     atom    2 type  1   force =    -0.00033977   -0.00002828    0.00011752
     atom    3 type  1   force =     0.00019437   -0.00028011    0.00011752
     atom    4 type  1   force =     0.00014539   -0.00030838   -0.00011752
     atom    5 type  1   force =     0.00019437    0.00028011   -0.00011752
     atom    6 type  1   force =    -0.00033977    0.00002828   -0.00011752
     atom    7 type  2   force =     0.00068559   -0.00060673    0.00033449
     atom    8 type  2   force =     0.00018265    0.00089710    0.00033449
     atom    9 type  2   force =    -0.00086824   -0.00029037    0.00033449
     atom   10 type  2   force =     0.00068559    0.00060673   -0.00033449
     atom   11 type  2   force =    -0.00086824    0.00029037   -0.00033449
     atom   12 type  2   force =     0.00018265   -0.00089710   -0.00033449
     atom   13 type  2   force =    -0.00049942   -0.00099160    0.00043667
     atom   14 type  2   force =     0.00110846    0.00006329    0.00043667
     atom   15 type  2   force =    -0.00060905    0.00092831    0.00043667
     atom   16 type  2   force =    -0.00049942    0.00099160   -0.00043667
     atom   17 type  2   force =    -0.00060905   -0.00092831   -0.00043667
     atom   18 type  2   force =     0.00110846   -0.00006329   -0.00043667
     atom   19 type  2   force =    -0.00046622   -0.00053877   -0.00013397
     atom   20 type  2   force =     0.00069970   -0.00013437   -0.00013397
     atom   21 type  2   force =    -0.00023348    0.00067314   -0.00013397
     atom   22 type  2   force =    -0.00046622    0.00053877    0.00013397
     atom   23 type  2   force =    -0.00023348   -0.00067314    0.00013397
     atom   24 type  2   force =     0.00069970    0.00013437    0.00013397
     atom   25 type  3   force =     0.00050225   -0.00007084    0.00071059
     atom   26 type  3   force =    -0.00018978    0.00047038    0.00071059
     atom   27 type  3   force =    -0.00031247   -0.00039954    0.00071059
     atom   28 type  3   force =     0.00050225    0.00007084   -0.00071059
     atom   29 type  3   force =    -0.00031247    0.00039954   -0.00071059
     atom   30 type  3   force =    -0.00018978   -0.00047038   -0.00071059
     atom   31 type  3   force =    -0.00017165    0.00053622    0.00013823
     atom   32 type  3   force =    -0.00037856   -0.00041676    0.00013823
     atom   33 type  3   force =     0.00055021   -0.00011946    0.00013823
     atom   34 type  3   force =    -0.00017165   -0.00053622   -0.00013823
     atom   35 type  3   force =     0.00055021    0.00011946   -0.00013823
     atom   36 type  3   force =    -0.00037856    0.00041676   -0.00013823
     atom   37 type  3   force =    -0.00073912    0.00030402    0.00058890
     atom   38 type  3   force =     0.00010627   -0.00079211    0.00058890
     atom   39 type  3   force =     0.00063285    0.00048808    0.00058890
     atom   40 type  3   force =    -0.00073912   -0.00030402   -0.00058890
     atom   41 type  3   force =     0.00063285   -0.00048808   -0.00058890
     atom   42 type  3   force =     0.00010627    0.00079211   -0.00058890
     atom   43 type  3   force =    -0.00020831    0.00022798    0.00008909
     atom   44 type  3   force =    -0.00009328   -0.00029439    0.00008909
     atom   45 type  3   force =     0.00030159    0.00006641    0.00008909
     atom   46 type  3   force =    -0.00020831   -0.00022798   -0.00008909
     atom   47 type  3   force =     0.00030159   -0.00006641   -0.00008909
     atom   48 type  3   force =    -0.00009328    0.00029439   -0.00008909
     atom   49 type  3   force =    -0.00003764   -0.00036505   -0.00007794
     atom   50 type  3   force =     0.00033497    0.00014993   -0.00007794
     atom   51 type  3   force =    -0.00029732    0.00021513   -0.00007794
     atom   52 type  3   force =    -0.00003764    0.00036505    0.00007794
     atom   53 type  3   force =    -0.00029732   -0.00021513    0.00007794
     atom   54 type  3   force =     0.00033497   -0.00014993    0.00007794
     atom   55 type  3   force =     0.00011110   -0.00019421    0.00137359
     atom   56 type  3   force =     0.00011264    0.00019332    0.00137359
     atom   57 type  3   force =    -0.00022374    0.00000089    0.00137359
     atom   58 type  3   force =     0.00011110    0.00019421   -0.00137359
     atom   59 type  3   force =    -0.00022374   -0.00000089   -0.00137359
     atom   60 type  3   force =     0.00011264   -0.00019332   -0.00137359
     atom   61 type  3   force =    -0.00036390    0.00037313    0.00039050
     atom   62 type  3   force =    -0.00014119   -0.00050172    0.00039050
     atom   63 type  3   force =     0.00050510    0.00012858    0.00039050
     atom   64 type  3   force =    -0.00036390   -0.00037313   -0.00039050
     atom   65 type  3   force =     0.00050510   -0.00012858   -0.00039050
     atom   66 type  3   force =    -0.00014119    0.00050172   -0.00039050
     atom   67 type  3   force =     0.00011952    0.00013483   -0.00105578
     atom   68 type  3   force =    -0.00017653    0.00003609   -0.00105578
     atom   69 type  3   force =     0.00005701   -0.00017093   -0.00105578
     atom   70 type  3   force =     0.00011952   -0.00013483    0.00105578
     atom   71 type  3   force =     0.00005701    0.00017093    0.00105578
     atom   72 type  3   force =    -0.00017653   -0.00003609    0.00105578
     atom   73 type  3   force =     0.00091523    0.00017527   -0.00051595
     atom   74 type  3   force =    -0.00060940    0.00070497   -0.00051595
     atom   75 type  3   force =    -0.00030583   -0.00088024   -0.00051595
     atom   76 type  3   force =     0.00091523   -0.00017527    0.00051595
     atom   77 type  3   force =    -0.00030583    0.00088024    0.00051595
     atom   78 type  3   force =    -0.00060940   -0.00070497    0.00051595
     atom   79 type  3   force =     0.00047330    0.00011707   -0.00006944
     atom   80 type  3   force =    -0.00033804    0.00035135   -0.00006944
     atom   81 type  3   force =    -0.00013526   -0.00046842   -0.00006944
     atom   82 type  3   force =     0.00047330   -0.00011707    0.00006944
     atom   83 type  3   force =    -0.00013526    0.00046842    0.00006944
     atom   84 type  3   force =    -0.00033804   -0.00035135    0.00006944
     atom   85 type  3   force =     0.00028760    0.00036474    0.00057171
     atom   86 type  3   force =    -0.00045967    0.00006670    0.00057171
     atom   87 type  3   force =     0.00017207   -0.00043143    0.00057171
     atom   88 type  3   force =     0.00028760   -0.00036474   -0.00057171
     atom   89 type  3   force =     0.00017207    0.00043143   -0.00057171
     atom   90 type  3   force =    -0.00045967   -0.00006670   -0.00057171
     atom   91 type  3   force =     0.00034462    0.00032421    0.00001874
     atom   92 type  3   force =    -0.00045308    0.00013634    0.00001874
     atom   93 type  3   force =     0.00010846   -0.00046055    0.00001874
     atom   94 type  3   force =     0.00034462   -0.00032421   -0.00001874
     atom   95 type  3   force =     0.00010846    0.00046055   -0.00001874
     atom   96 type  3   force =    -0.00045308   -0.00013634   -0.00001874
     atom   97 type  3   force =    -0.00016436   -0.00022246   -0.00066637
     atom   98 type  3   force =     0.00027484   -0.00003111   -0.00066637
     atom   99 type  3   force =    -0.00011048    0.00025357   -0.00066637
     atom  100 type  3   force =    -0.00016436    0.00022246    0.00066637
     atom  101 type  3   force =    -0.00011048   -0.00025357    0.00066637
     atom  102 type  3   force =     0.00027484    0.00003111    0.00066637
     atom  103 type  3   force =    -0.00025766    0.00017201   -0.00000953
     atom  104 type  3   force =    -0.00002014   -0.00030915   -0.00000953
     atom  105 type  3   force =     0.00027780    0.00013714   -0.00000953
     atom  106 type  3   force =    -0.00025766   -0.00017201    0.00000953
     atom  107 type  3   force =     0.00027780   -0.00013714    0.00000953
     atom  108 type  3   force =    -0.00002014    0.00030915    0.00000953
     atom  109 type  3   force =    -0.00009219   -0.00035385    0.00054485
     atom  110 type  3   force =     0.00035254    0.00009709    0.00054485
     atom  111 type  3   force =    -0.00026035    0.00025676    0.00054485
     atom  112 type  3   force =    -0.00009219    0.00035385   -0.00054485
     atom  113 type  3   force =    -0.00026035   -0.00025676   -0.00054485
     atom  114 type  3   force =     0.00035254   -0.00009709   -0.00054485
     atom  115 type  3   force =     0.00008019   -0.00006383   -0.00031339
     atom  116 type  3   force =     0.00001519    0.00010136   -0.00031339
     atom  117 type  3   force =    -0.00009537   -0.00003753   -0.00031339
     atom  118 type  3   force =     0.00008019    0.00006383    0.00031339
     atom  119 type  3   force =    -0.00009537    0.00003753    0.00031339
     atom  120 type  3   force =     0.00001519   -0.00010136    0.00031339
     atom  121 type  3   force =    -0.00003500   -0.00002912   -0.00010134
     atom  122 type  3   force =     0.00004272   -0.00001575   -0.00010134
     atom  123 type  3   force =    -0.00000772    0.00004488   -0.00010134
     atom  124 type  3   force =    -0.00003500    0.00002912    0.00010134
     atom  125 type  3   force =    -0.00000772   -0.00004488    0.00010134
     atom  126 type  3   force =     0.00004272    0.00001575    0.00010134
     atom  127 type  4   force =    -0.00012128    0.00120861   -0.00051240
     atom  128 type  4   force =    -0.00098604   -0.00070934   -0.00051240
     atom  129 type  4   force =     0.00110732   -0.00049927   -0.00051240
     atom  130 type  4   force =    -0.00012128   -0.00120861    0.00051240
     atom  131 type  4   force =     0.00110732    0.00049927    0.00051240
     atom  132 type  4   force =    -0.00098604    0.00070934    0.00051240
     atom  133 type  4   force =     0.00068326   -0.00016984   -0.00019623
     atom  134 type  4   force =    -0.00019454    0.00067664   -0.00019623
     atom  135 type  4   force =    -0.00048872   -0.00050680   -0.00019623
     atom  136 type  4   force =     0.00068326    0.00016984    0.00019623
     atom  137 type  4   force =    -0.00048872    0.00050680    0.00019623
     atom  138 type  4   force =    -0.00019454   -0.00067664    0.00019623
     atom  139 type  4   force =    -0.00075057   -0.00089098    0.00005298
     atom  140 type  4   force =     0.00114690   -0.00020452    0.00005298
     atom  141 type  4   force =    -0.00039632    0.00109550    0.00005298
     atom  142 type  4   force =    -0.00075057    0.00089098   -0.00005298
     atom  143 type  4   force =    -0.00039632   -0.00109550   -0.00005298
     atom  144 type  4   force =     0.00114690    0.00020452   -0.00005298
     atom  145 type  4   force =     0.00064142    0.00020919    0.00035308
     atom  146 type  4   force =    -0.00050188    0.00045089    0.00035308
     atom  147 type  4   force =    -0.00013954   -0.00066008    0.00035308
     atom  148 type  4   force =     0.00064142   -0.00020919   -0.00035308
     atom  149 type  4   force =    -0.00013954    0.00066008   -0.00035308
     atom  150 type  4   force =    -0.00050188   -0.00045089   -0.00035308
     atom  151 type  4   force =    -0.00021589   -0.00180057    0.00042056
     atom  152 type  4   force =     0.00166729    0.00071332    0.00042056
     atom  153 type  4   force =    -0.00145140    0.00108725    0.00042056
     atom  154 type  4   force =    -0.00021589    0.00180057   -0.00042056
     atom  155 type  4   force =    -0.00145140   -0.00108725   -0.00042056
     atom  156 type  4   force =     0.00166729   -0.00071332   -0.00042056
     atom  157 type  4   force =     0.00016612    0.00059286   -0.00111589
     atom  158 type  4   force =    -0.00059649   -0.00015257   -0.00111589
     atom  159 type  4   force =     0.00043037   -0.00044029   -0.00111589
     atom  160 type  4   force =     0.00016612   -0.00059286    0.00111589
     atom  161 type  4   force =     0.00043037    0.00044029    0.00111589
     atom  162 type  4   force =    -0.00059649    0.00015257    0.00111589
     atom  163 type  4   force =    -0.00000657    0.00218018   -0.00051691
     atom  164 type  4   force =    -0.00188480   -0.00109578   -0.00051691
     atom  165 type  4   force =     0.00189137   -0.00108440   -0.00051691
     atom  166 type  4   force =    -0.00000657   -0.00218018    0.00051691
     atom  167 type  4   force =     0.00189137    0.00108440    0.00051691
     atom  168 type  4   force =    -0.00188480    0.00109578    0.00051691
     atom  169 type  4   force =     0.00016394   -0.00002369   -0.00023511
     atom  170 type  4   force =    -0.00006145    0.00015382   -0.00023511
     atom  171 type  4   force =    -0.00010248   -0.00013013   -0.00023511
     atom  172 type  4   force =     0.00016394    0.00002369    0.00023511
     atom  173 type  4   force =    -0.00010248    0.00013013    0.00023511
     atom  174 type  4   force =    -0.00006145   -0.00015382    0.00023511
     atom  175 type  4   force =     0.00003138   -0.00090453   -0.00100672
     atom  176 type  4   force =     0.00076765    0.00047944   -0.00100672
     atom  177 type  4   force =    -0.00079904    0.00042508   -0.00100672
     atom  178 type  4   force =     0.00003138    0.00090453    0.00100672
     atom  179 type  4   force =    -0.00079904   -0.00042508    0.00100672
     atom  180 type  4   force =     0.00076765   -0.00047944    0.00100672
     atom  181 type  4   force =     0.00003582   -0.00010474   -0.00014647
     atom  182 type  4   force =     0.00007280    0.00008339   -0.00014647
     atom  183 type  4   force =    -0.00010862    0.00002135   -0.00014647
     atom  184 type  4   force =     0.00003582    0.00010474    0.00014647
     atom  185 type  4   force =    -0.00010862   -0.00002135    0.00014647
     atom  186 type  4   force =     0.00007280   -0.00008339    0.00014647
     atom  187 type  4   force =    -0.00007472    0.00065877    0.00078130
     atom  188 type  4   force =    -0.00053315   -0.00039410    0.00078130
     atom  189 type  4   force =     0.00060787   -0.00026467    0.00078130
     atom  190 type  4   force =    -0.00007472   -0.00065877   -0.00078130
     atom  191 type  4   force =     0.00060787    0.00026467   -0.00078130
     atom  192 type  4   force =    -0.00053315    0.00039410   -0.00078130
     atom  193 type  4   force =     0.00014476    0.00044313    0.00000234
     atom  194 type  4   force =    -0.00045614   -0.00009621    0.00000234
     atom  195 type  4   force =     0.00031139   -0.00034693    0.00000234
     atom  196 type  4   force =     0.00014476   -0.00044313   -0.00000234
     atom  197 type  4   force =     0.00031139    0.00034693   -0.00000234
     atom  198 type  4   force =    -0.00045614    0.00009621   -0.00000234
     atom  199 type  4   force =    -0.00023995   -0.00000115    0.00007232
     atom  200 type  4   force =     0.00012097   -0.00020723    0.00007232
     atom  201 type  4   force =     0.00011898    0.00020838    0.00007232
     atom  202 type  4   force =    -0.00023995    0.00000115   -0.00007232
     atom  203 type  4   force =     0.00011898   -0.00020838   -0.00007232
     atom  204 type  4   force =     0.00012097    0.00020723   -0.00007232
     atom  205 type  5   force =     0.00004243    0.00023656    0.00017219
     atom  206 type  5   force =    -0.00022608   -0.00008153    0.00017219
     atom  207 type  5   force =     0.00018365   -0.00015503    0.00017219
     atom  208 type  5   force =     0.00004243   -0.00023656   -0.00017219
     atom  209 type  5   force =     0.00018365    0.00015503   -0.00017219
     atom  210 type  5   force =    -0.00022608    0.00008153   -0.00017219
     atom  211 type  5   force =    -0.00018990   -0.00035033    0.00015814
     atom  212 type  5   force =     0.00039834    0.00001071    0.00015814
     atom  213 type  5   force =    -0.00020844    0.00033962    0.00015814
     atom  214 type  5   force =    -0.00018990    0.00035033   -0.00015814
     atom  215 type  5   force =    -0.00020844   -0.00033962   -0.00015814
     atom  216 type  5   force =     0.00039834   -0.00001071   -0.00015814

     Total force =     0.013428     Total SCF correction =     0.000081
     Energy error            =      2.6E-04 Ry
     Gradient error          =      2.2E-03 Ry/Bohr

     number of scf cycles    =   5
     number of bfgs steps    =   4

     energy             old  =   -2833.9188335968 Ry
     energy             new  =   -2833.9190934789 Ry

     CASE: energy            _new < energy            _old

     new trust radius        =       0.0048529586 bohr
     new conv_thr            =       0.0000000022 Ry


ATOMIC_POSITIONS (angstrom)
Mg              10.2292391437        5.4275110358        5.8275897262
Mg              12.1386879919        6.1450254420        1.1547497262
Mg              10.5625778645        7.4398994486        3.4911697262
Mg              -0.7475958563       13.5849248905        5.8545102738
Mg              -0.4142571355       11.5725364777        1.1816702738
Mg               1.1618529919       12.8674104843        3.5180902738
O               11.4469468806        4.4589923699        0.1790536795
O               12.3685958921        7.6838506095        2.5154736795
O                9.1149622273        6.8695929469        4.8518936795
O                0.4701118807       14.5534435564        4.4937863205
O               -1.8618727727       12.1428429794        6.8302063205
O                1.3917608921       11.3285853168        2.1573663205
O               10.8162039139        5.4809607921        2.6539195816
O               11.7989167600        6.6266269658        4.9903395816
O               10.3153843262        6.9048481683        0.3174995816
O               -0.1606310861       13.5314751342        2.0189204184
O               -0.6614506738       12.1075877580        4.3553404184
O                0.8220817600       12.3858089605        6.6917604184
O               10.2332798444        4.0566598528        4.2824812921
O               13.3238595907        6.8339503829        6.6189012921
O                9.3733655649        8.1218256906        1.9460612921
O               -0.7435551556       14.9557760735        0.3903587079
O               -1.6034694351       10.8906102357        2.7267787079
O                2.3470245907       12.1784855434        5.0631987079
H               10.5698517369        1.7586846966        3.7756295223
H               15.1456785071        8.2744177701        6.1120495223
H                7.2149747560        8.9793334596        1.4392095223
H               -0.4069832631       17.2537512297        0.8972104777
H               -3.7618602440       10.0331024667        3.2336304777
H                4.1688435071       10.7380181562        5.5700504777
H                0.8059493725       18.9794634461        0.0621177177
H               -5.8628371807       10.2206768339        2.3985377177
H                5.0568878084        8.8247315726        4.7349577177
H               11.7827843724        0.0329724802        4.6107222823
H               16.0337228084       10.1877043537        6.9471422823
H                5.1139978193        8.7917590924        2.2743022823
H               11.8795243047        2.2073545769        6.0410618362
H               14.1022827089        9.1842925443        1.3682218362
H                6.9486979865        7.6207888050        3.7046418362
H                0.9026893048       16.8050813494        5.6410381638
H               -4.0281370135       11.3916471213        0.9681981638
H                3.1254477089        9.8281433820        3.3046181638
H                2.7229652808       15.5476670365        1.4784539004
H               -3.8493222636       13.5967595148        3.8148739004
H                1.1263569829        8.8804453013        6.1512939004
H               13.6998002808        3.4647688898        3.1943860996
H               12.1031919828       10.1319906250        5.5308060996
H                7.1275127364        5.4156764115        0.8579660996
H                3.6209845957       14.1505707278        5.8985221043
H               -3.0884110262       15.0730152089        1.2256821043
H               -0.5325735695        8.8012859157        3.5621021043
H               14.5978195957        4.8618651985        5.7835778957
H               10.4442614305       10.2111500106        1.1107378957
H                7.8884239738        3.9394207174        3.4471578957
H                6.0018455954       13.6419678530        5.6243864183
H               -3.8383785160       17.3892027550        0.9515464183
H               -2.1634670793        6.9937012445        3.2879664183
H               16.9786805954        5.3704680733        6.0577135817
H                8.8133679207       12.0187346818        1.3848735817
H                7.1384564839        1.6232331713        3.7212935817
H                5.4024000369       14.9017994251        4.5350900419
H               -4.6297018827       16.2401518871        6.8715100419
H               -0.7726981542        6.8829205403        2.1986700419
H               16.3792350369        4.1106365012        0.1377499581
H               10.2041368458       12.1295153860        2.4741699581
H                6.3471331173        2.7722840392        4.8105899581
H                5.0330314299       16.4286981679        1.3744710950
H               -5.7673506794       15.1568199187        3.7108910950
H                0.7343192495        6.4393537661        6.0473110950
H               16.0098664298        2.5837377584        3.2983689050
H               11.7111542495       12.5730821602        5.6347889050
H                5.2094843206        3.8556160076        0.9619489050
H                5.5929490944       15.1449593869        2.4505136711
H               -4.9355591154       16.2835922307        4.7869336711
H               -0.6573899788        6.5963202351        0.1140936711
H               16.5697840943        3.8674765394        2.2223263289
H               10.3194450212       12.4161156912        4.5587463289
H                6.0412758846        2.7288436956        6.8951663289
H                7.2660592700       14.3991364249        0.8066836968
H               -5.1262125715       18.1054596270        3.1431036968
H               -2.1398466985        5.5202758007        5.4795236968
H               18.2428942700        4.6132995014        3.8661563032
H                8.8369883015       13.4921601256        6.2025763032
H                5.8506224285        0.9069762993        1.5297363032
H                7.4980688999       16.1197932550        1.1042761542
H               -6.7323499125       17.4460574454        3.4406961542
H               -0.7657189873        4.4590211522        5.7771161542
H               18.4749038999        2.8926426713        3.5685638458
H               10.2111160127       14.5534147741        5.9049838458
H                4.2444850875        1.5663784809        1.2321438458
H                6.2524821766       16.6746298890        6.0200684877
H               -6.5900591708       16.0899293835        1.3472284877
H                0.3375769943        5.2603125802        3.6836484877
H               17.2293171766        2.3378060373        5.6620315123
H               11.3144119943       13.7521233461        0.9891915123
H                4.3867758292        2.9225065428        3.3256115123
H                7.5693120775       15.5580708688        5.6378513647
H               -6.2815056448       17.7886170402        0.9650113647
H               -1.2878064325        4.6781839437        3.3014313647
H               18.5461470775        3.4543650575        6.0442486353
H                9.6890285675       14.3342519826        1.3714086353
H                4.6953293552        1.2238188861        3.7078286353
H                2.3377611642       13.9796408913        0.7866192936
H               -2.2987697296       14.0471760369        3.1230392936
H               -0.0389914345        9.9980549245        5.4594592936
H               13.3145961641        5.0327950350        3.8862207064
H               10.9378435655        9.0143810018        6.2226407064
H                8.6780652703        4.9652598894        1.5498007064
H                4.8349224370       13.4139420534        0.8702463935
H               -3.0574408016       16.4926305554        3.2066663935
H               -1.7774816354        8.1182992439        5.5430863935
H               15.8117574370        5.5984938729        3.8025936065
H                9.1993533646       10.8941366824        6.1390136065
H                7.9193941984        2.5198053709        1.4661736065
H                3.6973165594       13.1538283753        2.8540825354
H               -2.2633728096       15.6374918049        5.1905025354
H               -1.4339437497        9.2335516724        0.5176625354
H               14.6741515594        5.8586075510        1.8187574646
H                9.5428912503        9.7788842539        4.1551774646
H                8.7134621904        3.3749441214        6.4915974646
H                3.2886141256       14.6036990505        3.4777019489
H               -3.3146464297       14.5586097770        5.8141219489
H                0.0260323043        8.8625630251        1.1412819489
H               14.2654491255        4.4087368758        1.1951380511
H               11.0028673043       10.1498729012        3.5315580511
H                7.6621885703        4.4538261493        5.8679780511
C               11.3175496293        3.2779613352        0.8020949101
C               13.4560973965        8.1623048199        3.1385149101
C                8.1568579743        7.5721697712        5.4749349101
C                0.3407146293       15.7344745911        3.8707450899
C               -2.8199770257       11.4402661551        6.2071650899
C                2.4792623965       10.8501311064        1.5343250899
C               10.9478642448        3.1270781786        2.1851816691
C               13.7716087353        7.9175894639        4.5216016691
C                8.2110320198        7.9677682839        6.8580216691
C               -0.0289707552       15.8853577477        2.4876583309
C               -2.7658029802       11.0446676424        4.8240783309
C                2.7947737353       11.0948464624        0.1512383309
C               10.8733001758        1.8303469046        2.7391396332
C               14.9318929950        8.5013807229        5.0755596332
C                7.1253118292        8.6807082988        0.4027196332
C               -0.1035348241       17.1820890217        1.9337003668
C               -3.8515231708       10.3317276275        4.2701203668
C                3.9550579950       10.5110552034        6.6065403668
C               11.1641262097        0.6705847886        2.0156933541
C               15.7908634328        9.3331245144        4.3521133541
C                5.9755153576        9.0087266233        6.6885333541
C                0.1872912097       18.3418511377        2.6571466459
C               -5.0013196424       10.0037093030        4.9935666459
C                4.8140284328        9.6793114119        0.3207266459
C               11.5171002729        0.8356500952        0.6536575102
C               15.4714256524        9.5562763667        2.9900775102
C                5.9419790747        8.6205094644        5.3264975102
C                0.5402652730       18.1767858311        4.0191824898
C               -5.0348559253       10.3919264619        6.3556024898
C                4.4945906524        9.4561595596        1.6827624898
C               11.5794145567        2.0918782297        0.0672551906
C               14.3523430331        8.9821280523        2.4036751906
C                6.9987474102        7.9384296444        4.7400951906
C                0.6025795568       16.9205576966        4.6055848094
C               -3.9780875898       11.0740062819        6.9420048094
C                3.3755080331       10.0303078740        2.2691648094
C               10.6498144517        4.2764819750        3.0909846740
C               12.9252207450        7.0847688733        5.4274046740
C                9.3554698034        7.6511850780        0.7545646740
C               -0.3270205483       14.7359539513        1.5818553260
C               -1.6213651966       11.3612508483        3.9182753260
C                1.9483857450       11.9276670530        6.2546953260
C                4.4473130333       14.4481762831        0.7479152075
C               -3.7593092161       15.6398338501        3.0843352075
C               -0.6880038171        7.9368617194        5.4207552075
C               15.4241480333        4.5642596432        3.9249247925
C               10.2888311829       11.0755742069        6.2613447925
C                7.2175257839        3.3726020762        1.5885047925
C                5.5903687392       14.6693907758        5.5852049936
C               -4.5224144395       16.5191418830        0.9123649936
C               -1.0679542996        6.8363391938        3.2487849936
C               16.5672037392        4.3430451505        6.0968950064
C                9.9088807004       12.1760967325        1.4240550064
C                6.4544205604        2.4932940433        3.7604750064
C                6.6180504718       15.6527107443        6.1705392488
C               -5.8878353785       16.9174803862        1.4976992488
C               -0.7302150932        5.4546807221        3.8341192488
C               17.5948854717        3.3597251820        5.5115607512
C               10.2466199068       13.5577552042        0.8387207512
C                5.0889996215        2.0949555401        3.1751407512
C                5.4546648446       15.4163454065        1.3999665373
C               -5.1014441778       16.0281415475        3.7363865373
C               -0.3532206667        6.5803848986        6.0728065373
C               16.4314998445        3.5960905198        3.2728734627
C               10.6236143333       12.4320510277        5.6092934627
C                5.8753908222        2.9842943788        0.9364534627
C                6.8108499602       15.3880382777        0.6683002305
C               -5.7550220430       17.2167858743        3.0047202305
C               -1.0558279172        5.4200477006        5.3411402305
C               17.7876849601        3.6243976486        4.0045397695
C                9.9210070827       13.5923882257        6.3409597695
C                5.2218129570        1.7956500520        1.6681197695
C                3.0585104954       14.5102827533        1.4078034969
C               -3.1186937282       14.4060423363        3.7442234969
C                0.0601832329        9.1085467629        6.0806434969
C               14.0353454954        4.5021531730        3.2650365031
C               11.0370182329        9.9038891634        5.6014565031
C                7.8581412718        4.6063935900        0.9286165031
N                4.3069426191       14.7782269168        6.3187889961
N               -3.9749562423       15.3532441887        1.6459489961
N               -0.3319863767        7.8934007472        3.9823689961
N               15.2837776190        4.2342090095        5.3633110039
N               10.6448486233       11.1190351791        0.6904710039
N                7.0018787577        3.6591917376        3.0268910039
N                3.0091289780       13.9087111069        2.7847157200
N               -2.5730266414       14.6640625110        5.1211357200
N               -0.4361023364        9.4520982346        0.4482957200
N               13.9859639780        5.1037248194        1.8881242800
N               10.5407326636        9.5603376917        4.2245442800
N                8.4038083586        4.3483734153        6.5609642800



     Writing config-only to output data dir ./tmp/a_MOF.save/ :
     XML data file
     NEW-OLD atomic charge density approx. for the potential

     Check: negative core charge=   -0.000001

     negative rho (up, down):  1.279E-04 0.000E+00

     total cpu time spent up to now is     4327.4 secs

     per-process dynamical memory:   352.1 Mb

     Self-consistent Calculation

     iteration #  1     ecut=    60.00 Ry     beta= 0.30
     Davidson diagonalization with overlap
     ethr =  1.00E-06,  avg # of iterations =  2.0

     Threshold (ethr) on eigenvalues was too large:
     Diagonalizing with lowered threshold

     Davidson diagonalization with overlap
     ethr =  6.72E-09,  avg # of iterations =  5.0

     negative rho (up, down):  1.281E-04 0.000E+00

     total cpu time spent up to now is     4491.6 secs

     total energy              =   -2833.91920989 Ry
     estimated scf accuracy    <       0.00006210 Ry

     iteration #  2     ecut=    60.00 Ry     beta= 0.30
     Davidson diagonalization with overlap
     ethr =  1.05E-08,  avg # of iterations =  2.0

     negative rho (up, down):  1.284E-04 0.000E+00

     total cpu time spent up to now is     4549.6 secs

     total energy              =   -2833.91921061 Ry
     estimated scf accuracy    <       0.00002074 Ry

     iteration #  3     ecut=    60.00 Ry     beta= 0.30
     Davidson diagonalization with overlap
     ethr =  3.49E-09,  avg # of iterations =  5.0

     negative rho (up, down):  1.285E-04 0.000E+00

     total cpu time spent up to now is     4622.7 secs

     total energy              =   -2833.91921310 Ry
     estimated scf accuracy    <       0.00000385 Ry

     iteration #  4     ecut=    60.00 Ry     beta= 0.30
     Davidson diagonalization with overlap
     ethr =  6.48E-10,  avg # of iterations =  6.0

     negative rho (up, down):  1.286E-04 0.000E+00

     total cpu time spent up to now is     4712.9 secs

     total energy              =   -2833.91921382 Ry
     estimated scf accuracy    <       0.00000303 Ry

     iteration #  5     ecut=    60.00 Ry     beta= 0.30
     Davidson diagonalization with overlap
     ethr =  5.11E-10,  avg # of iterations =  5.0

     negative rho (up, down):  1.286E-04 0.000E+00

     total cpu time spent up to now is     4786.2 secs

     total energy              =   -2833.91921416 Ry
     estimated scf accuracy    <       0.00000033 Ry

     iteration #  6     ecut=    60.00 Ry     beta= 0.30
     Davidson diagonalization with overlap
     ethr =  5.53E-11,  avg # of iterations =  5.5

     negative rho (up, down):  1.286E-04 0.000E+00

     total cpu time spent up to now is     4866.6 secs

     total energy              =   -2833.91921421 Ry
     estimated scf accuracy    <       0.00000017 Ry

     iteration #  7     ecut=    60.00 Ry     beta= 0.30
     Davidson diagonalization with overlap
     ethr =  2.86E-11,  avg # of iterations =  6.0

     negative rho (up, down):  1.286E-04 0.000E+00

     total cpu time spent up to now is     4943.0 secs

     total energy              =   -2833.91921423 Ry
     estimated scf accuracy    <       0.00000003 Ry

     iteration #  8     ecut=    60.00 Ry     beta= 0.30
     Davidson diagonalization with overlap
     ethr =  5.03E-12,  avg # of iterations =  6.0

     negative rho (up, down):  1.286E-04 0.000E+00

     total cpu time spent up to now is     5016.5 secs

     total energy              =   -2833.91921423 Ry
     estimated scf accuracy    <          4.1E-09 Ry

     iteration #  9     ecut=    60.00 Ry     beta= 0.30
     Davidson diagonalization with overlap
     ethr =  6.88E-13,  avg # of iterations =  8.0

     negative rho (up, down):  1.286E-04 0.000E+00

     total cpu time spent up to now is     5112.6 secs

     End of self-consistent calculation

          k = 0.0000 0.0000 0.0000 (154911 PWs)   bands (ev):

   -22.4550 -22.4550 -22.3132 -22.3132 -22.3132 -22.3132 -20.5174 -20.5170
   -20.5020 -20.5020 -20.5015 -20.5015 -20.0358 -20.0355 -20.0196 -20.0196
   -20.0194 -20.0194 -18.7474 -18.7474 -18.7462 -18.7462 -18.7447 -18.7435
   -18.1672 -18.1672 -18.1657 -18.1657 -18.1642 -18.1628 -17.1295 -17.1207
   -17.1207 -16.4859 -16.4643 -16.4643 -15.4444 -15.4444 -15.4444 -15.3816
   -15.3816 -15.3815 -14.8180 -14.8107 -14.8107 -14.8075 -14.8067 -14.8067
   -14.7102 -14.6550 -14.6550 -14.5397 -14.5306 -14.5306 -14.2997 -14.2997
   -14.2894 -13.1450 -13.0705 -13.0705 -12.7696 -12.7696 -12.7630 -12.7549
   -12.7549 -12.7510 -11.7193 -11.7193 -11.7176 -11.6891 -11.6891 -11.6829
   -11.6594 -11.6594 -11.6469 -11.2862 -11.2862 -11.2552 -10.8168 -10.8168
   -10.8109 -10.8041 -10.7910 -10.7910 -10.7780 -10.6918 -10.6918 -10.3770
   -10.3770 -10.3351  -9.8354  -9.7811  -9.7763  -9.7763  -9.7365  -9.7317
    -9.7317  -9.5593  -9.5593  -9.4742  -8.9732  -8.9732  -8.7936  -8.7868
    -8.7761  -8.7761  -8.7601  -8.7601  -8.6005  -8.6005  -8.5108  -8.4606
    -8.4606  -8.4361  -8.3977  -8.3847  -8.3847  -8.1020  -8.1020  -7.9073
    -7.7845  -7.7773  -7.7773  -7.7034  -7.7034  -7.6302  -7.5460  -7.5460
    -7.4986  -7.4460  -7.4425  -7.4425  -7.4155  -7.4155  -7.3270  -7.3180
    -7.3180  -7.3131  -7.2617  -7.2617  -7.1677  -7.1636  -7.1567  -7.1567
    -7.0878  -7.0878  -6.9946  -6.9916  -6.9916  -6.9293  -6.9293  -6.7903
    -6.7345  -6.6808  -6.6808  -6.6295  -6.6081  -6.6081  -6.5993  -6.5828
    -6.5828  -6.5496  -6.5496  -6.5296  -6.5068  -6.4033  -6.3772  -6.2775
    -6.2775  -6.2637  -6.2637  -6.1882  -6.1882  -6.1592  -6.1471  -6.1471
    -6.1303  -6.0881  -6.0881  -6.0485  -6.0217  -6.0217  -6.0001  -5.7392
    -5.7258  -5.7178  -5.7178  -5.7105  -5.7105  -5.6095  -5.6095  -5.5060
    -5.4846  -5.4839  -5.4839  -5.4150  -5.4150  -5.3819  -5.3506  -5.3256
    -5.3256  -5.3063  -5.3002  -5.3002  -5.1896  -5.1657  -5.1657  -5.1201
    -5.1163  -5.1163  -4.9997  -4.9997  -4.9856  -4.8476  -4.8476  -4.7422
    -4.5309  -4.5309  -4.4678  -4.4678  -4.4468  -4.4357  -4.3788  -4.3655
    -4.3655  -4.2977  -4.2977  -4.2568  -4.2261  -4.2261  -4.2208  -4.2085
    -4.1800  -4.1800  -4.0492  -4.0492  -4.0349  -4.0226  -3.9726  -3.9726
    -3.9204  -3.9204  -3.8663  -3.8624  -3.8173  -3.8173  -3.8162  -3.7041
    -3.6834  -3.6834  -3.4760  -3.4760  -3.4637  -3.4637  -3.4392  -3.1741
    -3.1741  -3.1215  -3.1024  -3.0803  -3.0803  -2.8656  -2.8656  -2.7904
    -2.7904  -2.6512  -2.6476  -2.5564  -2.5564  -2.5497  -2.5497  -2.4823
    -2.4752  -2.2265  -2.2265  -2.2145  -2.2145  -2.1890  -2.1797  -2.0075
    -2.0075  -1.9806  -1.9806  -1.8307  -1.8303  -1.6188  -1.6188  -1.5488
    -1.3935  -1.3903  -1.3903  -1.3516  -1.3516  -1.3502  -0.7154  -0.7154
    -0.6385

          k = 0.0000 0.0000-1.5660 (154844 PWs)   bands (ev):

   -22.3954 -22.3954 -22.3954 -22.3954 -22.2823 -22.2823 -20.5496 -20.5496
   -20.5493 -20.5493 -20.4881 -20.4876 -20.0139 -20.0139 -20.0135 -20.0135
   -19.9912 -19.9910 -18.7116 -18.7104 -18.7085 -18.7085 -18.7072 -18.7072
   -18.2193 -18.2180 -18.2151 -18.2151 -18.2138 -18.2138 -17.1106 -17.1106
   -17.1102 -16.4737 -16.4737 -16.4712 -15.4397 -15.4396 -15.4396 -15.3769
   -15.3768 -15.3768 -14.8067 -14.8067 -14.8062 -14.8034 -14.8032 -14.8032
   -14.6704 -14.6704 -14.6560 -14.5822 -14.5822 -14.5770 -14.2916 -14.2916
   -14.2847 -13.1084 -13.1084 -13.0794 -12.7782 -12.7725 -12.7725 -12.7652
   -12.7590 -12.7590 -11.7043 -11.7043 -11.6601 -11.6437 -11.6413 -11.6413
   -11.5893 -11.5845 -11.5845 -11.2421 -11.2421 -11.1813 -10.8491 -10.8470
   -10.8470 -10.8236 -10.8208 -10.8208 -10.7032 -10.7032 -10.6346 -10.3806
   -10.3806 -10.3469  -9.7932  -9.7932  -9.7831  -9.7547  -9.7547  -9.7400
    -9.7400  -9.7395  -9.5849  -9.2958  -9.2958  -8.9222  -8.8649  -8.8649
    -8.8622  -8.8622  -8.8278  -8.8221  -8.5347  -8.4387  -8.4387  -8.2360
    -8.2360  -8.2219  -8.1557  -8.1557  -8.1493  -8.0437  -7.9916  -7.9916
    -7.9323  -7.9323  -7.8684  -7.6854  -7.6012  -7.6012  -7.5413  -7.5413
    -7.5410  -7.5048  -7.4875  -7.4875  -7.4157  -7.4054  -7.3670  -7.3670
    -7.3519  -7.2865  -7.2865  -7.2672  -7.2458  -7.2458  -7.2051  -7.2051
    -7.0331  -7.0034  -6.9520  -6.9520  -6.8548  -6.8548  -6.8184  -6.7311
    -6.7311  -6.7241  -6.6684  -6.6684  -6.6431  -6.5979  -6.5713  -6.5713
    -6.5413  -6.5413  -6.4909  -6.4909  -6.4773  -6.4550  -6.4046  -6.4046
    -6.3737  -6.3737  -6.3549  -6.3549  -6.3248  -6.2777  -6.2695  -6.2695
    -6.1992  -6.1839  -6.1839  -6.1798  -6.1798  -6.1662  -6.1336  -6.1064
    -6.0746  -6.0746  -5.9598  -5.9233  -5.9233  -5.6448  -5.6448  -5.6250
    -5.5784  -5.4999  -5.4999  -5.4686  -5.4686  -5.4063  -5.3854  -5.3854
    -5.3811  -5.3330  -5.2948  -5.2948  -5.1571  -5.1548  -5.1548  -5.1070
    -5.1070  -5.1037  -4.8179  -4.8179  -4.8107  -4.7717  -4.7717  -4.6896
    -4.6011  -4.5056  -4.4800  -4.4800  -4.4583  -4.4583  -4.3567  -4.3567
    -4.3557  -4.2198  -4.2198  -4.2137  -4.1905  -4.1905  -4.1693  -4.1544
    -4.1521  -4.1521  -4.0572  -4.0218  -4.0218  -3.9841  -3.9841  -3.9081
    -3.8997  -3.7700  -3.6877  -3.6547  -3.6547  -3.5097  -3.5097  -3.5048
    -3.4920  -3.4920  -3.4847  -3.4506  -3.4506  -3.3742  -3.3742  -3.1070
    -3.0240  -3.0142  -3.0142  -2.9900  -2.9900  -2.9035  -2.8556  -2.8556
    -2.8176  -2.8176  -2.8042  -2.5336  -2.5291  -2.4916  -2.4916  -2.4845
    -2.4845  -2.2931  -2.2576  -2.2576  -2.2170  -2.1712  -2.1712  -2.0230
    -2.0230  -2.0084  -2.0084  -2.0027  -1.9693  -1.6042  -1.6042  -1.5459
    -1.3869  -1.3869  -1.3783  -1.3523  -1.3523  -1.3472  -0.6947  -0.6762
    -0.6762

     highest occupied level (ev):    -0.6385

!    total energy              =   -2833.91921423 Ry
     estimated scf accuracy    <          1.1E-09 Ry

     The total energy is the sum of the following terms:
     one-electron contribution =   -6465.37212075 Ry
     hartree contribution      =    3421.10391258 Ry
     xc contribution           =    -673.84094147 Ry
     ewald contribution        =    1777.17284895 Ry
     one-center paw contrib.   =    -892.98291355 Ry

     convergence has been achieved in   9 iterations

     negative rho (up, down):  1.286E-04 0.000E+00

     Forces acting on atoms (cartesian axes, Ry/au):

     atom    1 type  1   force =     0.00022036    0.00018303    0.00019749
     atom    2 type  1   force =    -0.00026868    0.00009932    0.00019749
     atom    3 type  1   force =     0.00004833   -0.00028235    0.00019749
     atom    4 type  1   force =     0.00022036   -0.00018303   -0.00019749
     atom    5 type  1   force =     0.00004833    0.00028235   -0.00019749
     atom    6 type  1   force =    -0.00026868   -0.00009932   -0.00019749
     atom    7 type  2   force =     0.00026850    0.00005195    0.00035603
     atom    8 type  2   force =    -0.00017924    0.00020656    0.00035603
     atom    9 type  2   force =    -0.00008926   -0.00025850    0.00035603
     atom   10 type  2   force =     0.00026850   -0.00005195   -0.00035603
     atom   11 type  2   force =    -0.00008926    0.00025850   -0.00035603
     atom   12 type  2   force =    -0.00017924   -0.00020656   -0.00035603
     atom   13 type  2   force =    -0.00035596    0.00032035    0.00024517
     atom   14 type  2   force =    -0.00009945   -0.00046844    0.00024517
     atom   15 type  2   force =     0.00045541    0.00014809    0.00024517
     atom   16 type  2   force =    -0.00035596   -0.00032035   -0.00024517
     atom   17 type  2   force =     0.00045541   -0.00014809   -0.00024517
     atom   18 type  2   force =    -0.00009945    0.00046844   -0.00024517
     atom   19 type  2   force =    -0.00006438   -0.00003772   -0.00125336
     atom   20 type  2   force =     0.00006486   -0.00003689   -0.00125336
     atom   21 type  2   force =    -0.00000048    0.00007461   -0.00125336
     atom   22 type  2   force =    -0.00006438    0.00003772    0.00125336
     atom   23 type  2   force =    -0.00000048   -0.00007461    0.00125336
     atom   24 type  2   force =     0.00006486    0.00003689    0.00125336
     atom   25 type  3   force =     0.00050306   -0.00010604    0.00040948
     atom   26 type  3   force =    -0.00015970    0.00048868    0.00040948
     atom   27 type  3   force =    -0.00034336   -0.00038265    0.00040948
     atom   28 type  3   force =     0.00050306    0.00010604   -0.00040948
     atom   29 type  3   force =    -0.00034336    0.00038265   -0.00040948
     atom   30 type  3   force =    -0.00015970   -0.00048868   -0.00040948
     atom   31 type  3   force =    -0.00007168   -0.00012287   -0.00014507
     atom   32 type  3   force =     0.00014225   -0.00000064   -0.00014507
     atom   33 type  3   force =    -0.00007057    0.00012352   -0.00014507
     atom   34 type  3   force =    -0.00007168    0.00012287    0.00014507
     atom   35 type  3   force =    -0.00007057   -0.00012352    0.00014507
     atom   36 type  3   force =     0.00014225    0.00000064    0.00014507
     atom   37 type  3   force =    -0.00032407    0.00027589   -0.00052806
     atom   38 type  3   force =    -0.00007690   -0.00041860   -0.00052806
     atom   39 type  3   force =     0.00040097    0.00014271   -0.00052806
     atom   40 type  3   force =    -0.00032407   -0.00027589    0.00052806
     atom   41 type  3   force =     0.00040097   -0.00014271    0.00052806
     atom   42 type  3   force =    -0.00007690    0.00041860    0.00052806
     atom   43 type  3   force =    -0.00017776    0.00010660    0.00014071
     atom   44 type  3   force =    -0.00000344   -0.00020724    0.00014071
     atom   45 type  3   force =     0.00018119    0.00010064    0.00014071
     atom   46 type  3   force =    -0.00017776   -0.00010660   -0.00014071
     atom   47 type  3   force =     0.00018119   -0.00010064   -0.00014071
     atom   48 type  3   force =    -0.00000344    0.00020724   -0.00014071
     atom   49 type  3   force =     0.00011253   -0.00032008    0.00007666
     atom   50 type  3   force =     0.00022093    0.00025749    0.00007666
     atom   51 type  3   force =    -0.00033346    0.00006258    0.00007666
     atom   52 type  3   force =     0.00011253    0.00032008   -0.00007666
     atom   53 type  3   force =    -0.00033346   -0.00006258   -0.00007666
     atom   54 type  3   force =     0.00022093   -0.00025749   -0.00007666
     atom   55 type  3   force =     0.00024672   -0.00053053    0.00130632
     atom   56 type  3   force =     0.00033610    0.00047893    0.00130632
     atom   57 type  3   force =    -0.00058281    0.00005160    0.00130632
     atom   58 type  3   force =     0.00024672    0.00053053   -0.00130632
     atom   59 type  3   force =    -0.00058281   -0.00005160   -0.00130632
     atom   60 type  3   force =     0.00033610   -0.00047893   -0.00130632
     atom   61 type  3   force =    -0.00034839    0.00024475   -0.00066424
     atom   62 type  3   force =    -0.00003777   -0.00042409   -0.00066424
     atom   63 type  3   force =     0.00038616    0.00017934   -0.00066424
     atom   64 type  3   force =    -0.00034839   -0.00024475    0.00066424
     atom   65 type  3   force =     0.00038616   -0.00017934    0.00066424
     atom   66 type  3   force =    -0.00003777    0.00042409    0.00066424
     atom   67 type  3   force =    -0.00003123    0.00042450   -0.00100208
     atom   68 type  3   force =    -0.00035201   -0.00023930   -0.00100208
     atom   69 type  3   force =     0.00038324   -0.00018520   -0.00100208
     atom   70 type  3   force =    -0.00003123   -0.00042450    0.00100208
     atom   71 type  3   force =     0.00038324    0.00018520    0.00100208
     atom   72 type  3   force =    -0.00035201    0.00023930    0.00100208
     atom   73 type  3   force =     0.00066317    0.00010709    0.00048739
     atom   74 type  3   force =    -0.00042432    0.00052078    0.00048739
     atom   75 type  3   force =    -0.00023884   -0.00062786    0.00048739
     atom   76 type  3   force =     0.00066317   -0.00010709   -0.00048739
     atom   77 type  3   force =    -0.00023884    0.00062786   -0.00048739
     atom   78 type  3   force =    -0.00042432   -0.00052078   -0.00048739
     atom   79 type  3   force =     0.00035472    0.00028650    0.00002293
     atom   80 type  3   force =    -0.00042547    0.00016395    0.00002293
     atom   81 type  3   force =     0.00007075   -0.00045044    0.00002293
     atom   82 type  3   force =     0.00035472   -0.00028650   -0.00002293
     atom   83 type  3   force =     0.00007075    0.00045044   -0.00002293
     atom   84 type  3   force =    -0.00042547   -0.00016395   -0.00002293
     atom   85 type  3   force =     0.00010809    0.00023216    0.00031629
     atom   86 type  3   force =    -0.00025510   -0.00002247    0.00031629
     atom   87 type  3   force =     0.00014701   -0.00020969    0.00031629
     atom   88 type  3   force =     0.00010809   -0.00023216   -0.00031629
     atom   89 type  3   force =     0.00014701    0.00020969   -0.00031629
     atom   90 type  3   force =    -0.00025510    0.00002247   -0.00031629
     atom   91 type  3   force =     0.00026655    0.00017491   -0.00011083
     atom   92 type  3   force =    -0.00028475    0.00014339   -0.00011083
     atom   93 type  3   force =     0.00001820   -0.00031830   -0.00011083
     atom   94 type  3   force =     0.00026655   -0.00017491    0.00011083
     atom   95 type  3   force =     0.00001820    0.00031830    0.00011083
     atom   96 type  3   force =    -0.00028475   -0.00014339    0.00011083
     atom   97 type  3   force =    -0.00028324   -0.00025337   -0.00050752
     atom   98 type  3   force =     0.00036104   -0.00011861   -0.00050752
     atom   99 type  3   force =    -0.00007780    0.00037198   -0.00050752
     atom  100 type  3   force =    -0.00028324    0.00025337    0.00050752
     atom  101 type  3   force =    -0.00007780   -0.00037198    0.00050752
     atom  102 type  3   force =     0.00036104    0.00011861    0.00050752
     atom  103 type  3   force =    -0.00020368    0.00013080   -0.00000447
     atom  104 type  3   force =    -0.00001144   -0.00024179   -0.00000447
     atom  105 type  3   force =     0.00021512    0.00011099   -0.00000447
     atom  106 type  3   force =    -0.00020368   -0.00013080    0.00000447
     atom  107 type  3   force =     0.00021512   -0.00011099    0.00000447
     atom  108 type  3   force =    -0.00001144    0.00024179    0.00000447
     atom  109 type  3   force =    -0.00005144   -0.00021999    0.00057050
     atom  110 type  3   force =     0.00021624    0.00006545    0.00057050
     atom  111 type  3   force =    -0.00016480    0.00015454    0.00057050
     atom  112 type  3   force =    -0.00005144    0.00021999   -0.00057050
     atom  113 type  3   force =    -0.00016480   -0.00015454   -0.00057050
     atom  114 type  3   force =     0.00021624   -0.00006545   -0.00057050
     atom  115 type  3   force =     0.00008753   -0.00007372   -0.00026956
     atom  116 type  3   force =     0.00002008    0.00011266   -0.00026956
     atom  117 type  3   force =    -0.00010761   -0.00003894   -0.00026956
     atom  118 type  3   force =     0.00008753    0.00007372    0.00026956
     atom  119 type  3   force =    -0.00010761    0.00003894    0.00026956
     atom  120 type  3   force =     0.00002008   -0.00011266    0.00026956
     atom  121 type  3   force =    -0.00003790   -0.00006935   -0.00002005
     atom  122 type  3   force =     0.00007901    0.00000186   -0.00002005
     atom  123 type  3   force =    -0.00004111    0.00006749   -0.00002005
     atom  124 type  3   force =    -0.00003790    0.00006935    0.00002005
     atom  125 type  3   force =    -0.00004111   -0.00006749    0.00002005
     atom  126 type  3   force =     0.00007901   -0.00000186    0.00002005
     atom  127 type  4   force =     0.00008301    0.00027971   -0.00043321
     atom  128 type  4   force =    -0.00028374   -0.00006797   -0.00043321
     atom  129 type  4   force =     0.00020073   -0.00021174   -0.00043321
     atom  130 type  4   force =     0.00008301   -0.00027971    0.00043321
     atom  131 type  4   force =     0.00020073    0.00021174    0.00043321
     atom  132 type  4   force =    -0.00028374    0.00006797    0.00043321
     atom  133 type  4   force =     0.00055565   -0.00001985   -0.00015337
     atom  134 type  4   force =    -0.00026064    0.00049113   -0.00015337
     atom  135 type  4   force =    -0.00029501   -0.00047128   -0.00015337
     atom  136 type  4   force =     0.00055565    0.00001985    0.00015337
     atom  137 type  4   force =    -0.00029501    0.00047128    0.00015337
     atom  138 type  4   force =    -0.00026064   -0.00049113    0.00015337
     atom  139 type  4   force =    -0.00081429    0.00013413    0.00068953
     atom  140 type  4   force =     0.00029099   -0.00077226    0.00068953
     atom  141 type  4   force =     0.00052330    0.00063813    0.00068953
     atom  142 type  4   force =    -0.00081429   -0.00013413   -0.00068953
     atom  143 type  4   force =     0.00052330   -0.00063813   -0.00068953
     atom  144 type  4   force =     0.00029099    0.00077226   -0.00068953
     atom  145 type  4   force =     0.00052752   -0.00027301   -0.00002659
     atom  146 type  4   force =    -0.00002732    0.00059335   -0.00002659
     atom  147 type  4   force =    -0.00050019   -0.00032034   -0.00002659
     atom  148 type  4   force =     0.00052752    0.00027301    0.00002659
     atom  149 type  4   force =    -0.00050019    0.00032034    0.00002659
     atom  150 type  4   force =    -0.00002732   -0.00059335    0.00002659
     atom  151 type  4   force =    -0.00007467    0.00059662   -0.00031526
     atom  152 type  4   force =    -0.00047936   -0.00036298   -0.00031526
     atom  153 type  4   force =     0.00055403   -0.00023365   -0.00031526
     atom  154 type  4   force =    -0.00007467   -0.00059662    0.00031526
     atom  155 type  4   force =     0.00055403    0.00023365    0.00031526
     atom  156 type  4   force =    -0.00047936    0.00036298    0.00031526
     atom  157 type  4   force =    -0.00033893   -0.00061883    0.00035897
     atom  158 type  4   force =     0.00070539    0.00001589    0.00035897
     atom  159 type  4   force =    -0.00036646    0.00060294    0.00035897
     atom  160 type  4   force =    -0.00033893    0.00061883   -0.00035897
     atom  161 type  4   force =    -0.00036646   -0.00060294   -0.00035897
     atom  162 type  4   force =     0.00070539   -0.00001589   -0.00035897
     atom  163 type  4   force =    -0.00024755    0.00020582    0.00064490
     atom  164 type  4   force =    -0.00005447   -0.00031729    0.00064490
     atom  165 type  4   force =     0.00030202    0.00011147    0.00064490
     atom  166 type  4   force =    -0.00024755   -0.00020582   -0.00064490
     atom  167 type  4   force =     0.00030202   -0.00011147   -0.00064490
     atom  168 type  4   force =    -0.00005447    0.00031729   -0.00064490
     atom  169 type  4   force =    -0.00008171    0.00002019   -0.00007477
     atom  170 type  4   force =     0.00002338   -0.00008086   -0.00007477
     atom  171 type  4   force =     0.00005834    0.00006067   -0.00007477
     atom  172 type  4   force =    -0.00008171   -0.00002019    0.00007477
     atom  173 type  4   force =     0.00005834   -0.00006067    0.00007477
     atom  174 type  4   force =     0.00002338    0.00008086    0.00007477
     atom  175 type  4   force =    -0.00011159   -0.00007990   -0.00060593
     atom  176 type  4   force =     0.00012499   -0.00005669   -0.00060593
     atom  177 type  4   force =    -0.00001340    0.00013659   -0.00060593
     atom  178 type  4   force =    -0.00011159    0.00007990    0.00060593
     atom  179 type  4   force =    -0.00001340   -0.00013659    0.00060593
     atom  180 type  4   force =     0.00012499    0.00005669    0.00060593
     atom  181 type  4   force =    -0.00001938   -0.00007182   -0.00016938
     atom  182 type  4   force =     0.00007189    0.00001912   -0.00016938
     atom  183 type  4   force =    -0.00005251    0.00005270   -0.00016938
     atom  184 type  4   force =    -0.00001938    0.00007182    0.00016938
     atom  185 type  4   force =    -0.00005251   -0.00005270    0.00016938
     atom  186 type  4   force =     0.00007189   -0.00001912    0.00016938
     atom  187 type  4   force =     0.00026321    0.00004892    0.00022259
     atom  188 type  4   force =    -0.00017397    0.00020349    0.00022259
     atom  189 type  4   force =    -0.00008924   -0.00025241    0.00022259
     atom  190 type  4   force =     0.00026321   -0.00004892   -0.00022259
     atom  191 type  4   force =    -0.00008924    0.00025241   -0.00022259
     atom  192 type  4   force =    -0.00017397   -0.00020349   -0.00022259
     atom  193 type  4   force =     0.00019877    0.00028686    0.00000801
     atom  194 type  4   force =    -0.00034781    0.00002871    0.00000801
     atom  195 type  4   force =     0.00014904   -0.00031557    0.00000801
     atom  196 type  4   force =     0.00019877   -0.00028686   -0.00000801
     atom  197 type  4   force =     0.00014904    0.00031557   -0.00000801
     atom  198 type  4   force =    -0.00034781   -0.00002871   -0.00000801
     atom  199 type  4   force =     0.00000468    0.00019770    0.00009720
     atom  200 type  4   force =    -0.00017355   -0.00009480    0.00009720
     atom  201 type  4   force =     0.00016887   -0.00010290    0.00009720
     atom  202 type  4   force =     0.00000468   -0.00019770   -0.00009720
     atom  203 type  4   force =     0.00016887    0.00010290   -0.00009720
     atom  204 type  4   force =    -0.00017355    0.00009480   -0.00009720
     atom  205 type  5   force =     0.00037175    0.00025337    0.00008501
     atom  206 type  5   force =    -0.00040530    0.00019526    0.00008501
     atom  207 type  5   force =     0.00003355   -0.00044863    0.00008501
     atom  208 type  5   force =     0.00037175   -0.00025337   -0.00008501
     atom  209 type  5   force =     0.00003355    0.00044863   -0.00008501
     atom  210 type  5   force =    -0.00040530   -0.00019526   -0.00008501
     atom  211 type  5   force =    -0.00021056   -0.00025757   -0.00001855
     atom  212 type  5   force =     0.00032834   -0.00005356   -0.00001855
     atom  213 type  5   force =    -0.00011779    0.00031113   -0.00001855
     atom  214 type  5   force =    -0.00021056    0.00025757    0.00001855
     atom  215 type  5   force =    -0.00011779   -0.00031113    0.00001855
     atom  216 type  5   force =     0.00032834    0.00005356    0.00001855

     Total force =     0.009177     Total SCF correction =     0.000079
     Energy error            =      1.2E-04 Ry
     Gradient error          =      1.3E-03 Ry/Bohr

     number of scf cycles    =   6
     number of bfgs steps    =   5

     energy             old  =   -2833.9190934789 Ry
     energy             new  =   -2833.9192142267 Ry

     CASE: energy            _new < energy            _old

     new trust radius        =       0.0032221972 bohr
     new conv_thr            =       0.0000000012 Ry


ATOMIC_POSITIONS (angstrom)
Mg              10.2292378711        5.4275626367        5.8275399727
Mg              12.1386439406        6.1449985394        1.1546999727
Mg              10.5626231885        7.4398747503        3.4911199727
Mg              -0.7475971289       13.5848732896        5.8545600273
Mg              -0.4142118115       11.5725611760        1.1817200273
Mg               1.1618089406       12.8674373869        3.5181400273
O               11.4481178072        4.4589012126        0.1789744867
O               12.3680893734        7.6849102403        2.5153944867
O                9.1142978194        6.8686244734        4.8518144867
O                0.4712828073       14.5535347137        4.4938655133
O               -1.8625371806       12.1438114529        6.8302855133
O                1.3912543734       11.3275256860        2.1574455133
O               10.8157021070        5.4809799319        2.6539296938
O               11.7991510879        6.6261828185        4.9903496938
O               10.3156518052        6.9052731759        0.3175096938
O               -0.1611328930       13.5314559944        2.0189103062
O               -0.6611831948       12.1071627504        4.3553303062
O                0.8223160879       12.3862531078        6.6917503062
O               10.2328156831        4.0564163171        4.2819163663
O               13.3243025796        6.8336701753        6.6183363663
O                9.3733867374        8.1223494340        1.9454963663
O               -0.7440193169       14.9560196092        0.3909236337
O               -1.6034482626       10.8900864923        2.7273436337
O                2.3474675796       12.1787657510        5.0637636337
H               10.5706359442        1.7585856441        3.7760932118
H               15.1453721854        8.2751464398        6.1125132118
H                7.2144968704        8.9787038424        1.4396732118
H               -0.4061990558       17.2538502822        0.8967467882
H               -3.7623381296       10.0337320839        3.2331667882
H                4.1685371854       10.7372894865        5.5695867882
H                0.8058869314       18.9795276955        0.0620481238
H               -5.8628616018       10.2205906337        2.3984681238
H                5.0569746705        8.8247535234        4.7348881238
H               11.7827219313        0.0329082308        4.6107918762
H               16.0338096705       10.1876824029        6.9472118762
H                5.1139733982        8.7918452926        2.2743718762
H               11.8785739334        2.2078466598        6.0412491198
H               14.1023317383        9.1832234573        1.3684091198
H                6.9495993283        7.6213658093        3.7048291198
H                0.9017389335       16.8045892665        5.6408508802
H               -4.0272356717       11.3910701170        0.9680108802
H                3.1254967383        9.8292124690        3.3044308802
H                2.7227276438       15.5477941157        1.4785545960
H               -3.8493134989       13.5964901756        3.8149745960
H                1.1265858552        8.8805875613        6.1513945960
H               13.6995626438        3.4646418106        3.1942854040
H               12.1034208551       10.1318483650        5.5307054040
H                7.1275215011        5.4159457507        0.8578654040
H                3.6208262715       14.1501086787        5.8984364583
H               -3.0879317178       15.0731091207        1.2255964583
H               -0.5328945537        8.8016540531        3.5620164583
H               14.5976612715        4.8623272476        5.7836635417
H               10.4439404463       10.2107818732        1.1108235417
H                7.8889032822        3.9393268056        3.4472435417
H                6.0020006417       13.6414156050        5.6259921562
H               -3.8379777783       17.3896131531        0.9531521562
H               -2.1640228633        6.9938430945        3.2895721562
H               16.9788356417        5.3710203213        6.0561078438
H                8.8128121367       12.0185928318        1.3832678438
H                7.1388572216        1.6228227732        3.7196878438
H                5.4019061885       14.9021560976        4.5357875927
H               -4.6297638459       16.2395458656        6.8722075927
H               -0.7721423425        6.8831698894        2.1993675927
H               16.3787411885        4.1102798287        0.1370524073
H               10.2046926575       12.1292660369        2.4734724073
H                6.3470711541        2.7728900607        4.8098924073
H                5.0330447652       16.4292253707        1.3732271416
H               -5.7678139180       15.1565678659        3.7096471416
H                0.7347691529        6.4390786160        6.0460671416
H               16.0098797651        2.5832105556        3.2996128584
H               11.7116041529       12.5733573103        5.6360328584
H                5.2090210820        3.8558680604        0.9631928584
H                5.5943636980       15.1452983970        2.4498561367
H               -4.9365600086       16.2846478083        4.7862761367
H               -0.6578036893        6.5949256474        0.1134361367
H               16.5711986979        3.8671375293        2.2229838633
H               10.3190313107       12.4175102789        4.5594038633
H                6.0402749914        2.7277881180        6.8958238633
H                7.2665750973       14.3995581614        0.8065735938
H               -5.1268357197       18.1056954784        3.1429935938
H               -2.1397393776        5.5196182128        5.4794135938
H               18.2434100973        4.6128777649        3.8662664062
H                8.8370956224       13.4928177135        6.2026864062
H                5.8499992803        0.9067404479        1.5298464062
H                7.4984098975       16.1202215375        1.1049986510
H               -6.7328913148       17.4461386167        3.4414186510
H               -0.7655185825        4.4585116984        5.7778386510
H               18.4752448975        2.8922143888        3.5678413490
H               10.2113164175       14.5539242279        5.9042613490
H                4.2439436852        1.5662973096        1.2314213490
H                6.2529906318       16.6748390863        6.0200686878
H               -6.5904945687       16.0902651200        1.3472286878
H                0.3375039369        5.2597676463        3.6836486878
H               17.2298256318        2.3375968400        5.6620313122
H               11.3143389369       13.7526682800        0.9891913122
H                4.3863404313        2.9221708063        3.3256113122
H                7.5691535403       15.5578254961        5.6369212842
H               -6.2812138773       17.7886024293        0.9640812842
H               -1.2879396629        4.6784439273        3.3005012842
H               18.5459885403        3.4546104302        6.0451787158
H                9.6888953371       14.3339919990        1.3723387158
H                4.6956211227        1.2238334970        3.7087587158
H                2.3373221740       13.9798895770        0.7865486257
H               -2.2987656026       14.0466715173        3.1229686257
H               -0.0385565712        9.9983107584        5.4593886257
H               13.3141571739        5.0325463493        3.8862913743
H               10.9382784288        9.0141251679        6.2227113743
H                8.6780693973        4.9657644090        1.5498713743
H                4.8347848442       13.4136703933        0.8708730070
H               -3.0571367407       16.4926472265        3.2072930070
H               -1.7776481035        8.1185542328        5.5437130070
H               15.8116198442        5.5987655330        3.8019669930
H                9.1991868965       10.8938816935        6.1383869930
H                7.9196982593        2.5197886998        1.4655469930
H                3.6974151840       13.1537257328        2.8536765931
H               -2.2633332310       15.6376285375        5.1900965931
H               -1.4340819529        9.2335175822        0.5172565931
H               14.6742501840        5.8587101935        1.8191634069
H                9.5427530471        9.7789183441        4.1555834069
H                8.7135017690        3.3748073888        6.4920034069
H                3.2885398092       14.6035793658        3.4775326908
H               -3.3145056216       14.5586052595        5.8139526908
H                0.0259658125        8.8626872273        1.1411126908
H               14.2653748091        4.4088565605        1.1953073092
H               11.0028008125       10.1497486990        3.5317273092
H                7.6623293784        4.4538306668        5.8681473092
C               11.3176347652        3.2783308318        0.8018486814
C               13.4557348351        8.1621938014        3.1382686814
C                8.1571353998        7.5719112930        5.4746886814
C                0.3407997652       15.7341050945        3.8709913186
C               -2.8196996002       11.4405246333        6.2074113186
C                2.4788998351       10.8502421249        1.5345713186
C               10.9482296593        3.1270050125        2.1851216594
C               13.7714893917        7.9179425052        4.5215416594
C                8.2107859489        7.9674884086        6.8579616594
C               -0.0286053407       15.8854309138        2.4877183406
C               -2.7660490511       11.0449475177        4.8241383406
C                2.7946543917       11.0944934211        0.1512983406
C               10.8727740911        1.8301987956        2.7394868661
C               14.9322843035        8.5009991747        5.0759068661
C                7.1254466055        8.6812379560        0.4030668661
C               -0.1040609088       17.1822371307        1.9333531339
C               -3.8513883945       10.3311979703        4.2697731339
C                3.9554493035       10.5114367516        6.6061931339
C               11.1647449841        0.6703995878        2.0158007752
C               15.7907144343        9.3337529892        4.3522207752
C                5.9750455817        9.0082833493        6.6886407752
C                0.1879099841       18.3420363385        2.6570392248
C               -5.0017894183       10.0041525770        4.9934592248
C                4.8138794343        9.6786829371        0.3206192248
C               11.5168873014        0.8355865986        0.6536806354
C               15.4715871278        9.5561236763        2.9901006354
C                5.9420305708        8.6207256514        5.3265206354
C                0.5400523015       18.1768493277        4.0191593646
C               -5.0348044292       10.3917102749        6.3555793646
C                4.4947521278        9.4563122500        1.6827393646
C               11.5790921161        2.0915639776        0.0676315266
C               14.3527764037        8.9820059366        2.4040515266
C                6.9986364802        7.9388660121        4.7404715266
C                0.6022571162       16.9208719487        4.6052084734
C               -3.9781985198       11.0735699142        6.9416284734
C                3.3759414037       10.0304299897        2.2687884734
C               10.6493785552        4.2768696778        3.0912907298
C               12.9251029327        7.0841975245        5.4277107298
C                9.3560235120        7.6513687241        0.7548707298
C               -0.3274564448       14.7355662485        1.5815492702
C               -1.6208114880       11.3610672022        3.9179692702
C                1.9482679327       11.9282384018        6.2543892702
C                4.4472246219       14.4481440048        0.7479661842
C               -3.7592370566       15.6397734228        3.0843861842
C               -0.6879875653        7.9369544250        5.4208061842
C               15.4240596219        4.5642919215        3.9248738158
C               10.2888474347       11.0754815013        6.2612938158
C                7.2175979434        3.3726625035        1.5884538158
C                5.5903259940       14.6689284318        5.5854285837
C               -4.5219926652       16.5193360367        0.9125885837
C               -1.0683333288        6.8366073842        3.2490085837
C               16.5671609940        4.3435074945        6.0966714163
C                9.9085016712       12.1758285421        1.4238314163
C                6.4548423347        2.4930998896        3.7602514163
C                6.6182386642       15.6526451397        6.1703419170
C               -5.8878726594       16.9176761679        1.4975019170
C               -0.7303660047        5.4545505450        3.8339219170
C               17.5950736641        3.3597907866        5.5117580830
C               10.2464689953       13.5578853813        0.8389180830
C                5.0889623406        2.0947597584        3.1753380830
C                5.4548322884       15.4167852041        1.3996188665
C               -5.1019087756       16.0280666593        3.7360388665
C               -0.3529235127        6.5800199892        6.0724588665
C               16.4316672883        3.5956507222        3.2732211335
C               10.6239114873       12.4324159371        5.6096411335
C                5.8749262244        2.9843692670        0.9368011335
C                6.8112658367       15.3885694752        0.6682836971
C               -5.7556900118       17.2168804351        3.0047036971
C               -1.0555758248        5.4194219422        5.3411236971
C               17.7881008366        3.6238664511        4.0045563029
C                9.9212591751       13.5930139841        6.3409763029
C                5.2211449882        1.7955554912        1.6681363029
C                3.0582998165       14.5103647142        1.4078895016
C               -3.1186593689       14.4058189026        3.7443095016
C                0.0603595525        9.1086882357        6.0807295016
C               14.0351348165        4.5020712121        3.2649504984
C               11.0371945525        9.9037476906        5.6013704984
C                7.8581756311        4.6066170237        0.9285304984
N                4.3069690389       14.7780759332        6.3189044126
N               -3.9748386966       15.3533425607        1.6460644126
N               -0.3321303422        7.8934533588        3.9824844126
N               15.2838040388        4.2343599931        5.3631955874
N               10.6447046578       11.1189825675        0.6903555874
N                7.0019963034        3.6590933656        3.0267755874
N                3.0088672833       13.9083582665        2.7847031498
N               -2.5725902253       14.6640122970        5.1211231498
N               -0.4362770579        9.4525012891        0.4482831498
N               13.9857022833        5.1040776598        1.8881368502
N               10.5405579421        9.5599346372        4.2245568502
N                8.4042447747        4.3484236293        6.5609768502



     Writing config-only to output data dir ./tmp/a_MOF.save/ :
     XML data file
     NEW-OLD atomic charge density approx. for the potential

     Check: negative core charge=   -0.000001

     negative rho (up, down):  1.279E-04 0.000E+00

     total cpu time spent up to now is     5148.7 secs

     per-process dynamical memory:   352.1 Mb

     Self-consistent Calculation

     iteration #  1     ecut=    60.00 Ry     beta= 0.30
     Davidson diagonalization with overlap
     ethr =  1.00E-06,  avg # of iterations =  2.0

     Threshold (ethr) on eigenvalues was too large:
     Diagonalizing with lowered threshold

     Davidson diagonalization with overlap
     ethr =  3.10E-09,  avg # of iterations =  5.0

     negative rho (up, down):  1.281E-04 0.000E+00

     total cpu time spent up to now is     5309.0 secs

     total energy              =   -2833.91929726 Ry
     estimated scf accuracy    <       0.00003076 Ry

     iteration #  2     ecut=    60.00 Ry     beta= 0.30
     Davidson diagonalization with overlap
     ethr =  5.18E-09,  avg # of iterations =  2.0

     negative rho (up, down):  1.283E-04 0.000E+00

     total cpu time spent up to now is     5368.6 secs

     total energy              =   -2833.91929795 Ry
     estimated scf accuracy    <       0.00001039 Ry

     iteration #  3     ecut=    60.00 Ry     beta= 0.30
     Davidson diagonalization with overlap
     ethr =  1.75E-09,  avg # of iterations =  5.0

     negative rho (up, down):  1.284E-04 0.000E+00

     total cpu time spent up to now is     5441.6 secs

     total energy              =   -2833.91929911 Ry
     estimated scf accuracy    <       0.00000211 Ry

     iteration #  4     ecut=    60.00 Ry     beta= 0.30
     Davidson diagonalization with overlap
     ethr =  3.55E-10,  avg # of iterations =  6.0

     negative rho (up, down):  1.284E-04 0.000E+00

     total cpu time spent up to now is     5518.6 secs

     total energy              =   -2833.91929941 Ry
     estimated scf accuracy    <       0.00000167 Ry

     iteration #  5     ecut=    60.00 Ry     beta= 0.30
     Davidson diagonalization with overlap
     ethr =  2.81E-10,  avg # of iterations =  6.0

     negative rho (up, down):  1.284E-04 0.000E+00

     total cpu time spent up to now is     5589.7 secs

     total energy              =   -2833.91929974 Ry
     estimated scf accuracy    <       0.00000011 Ry

     iteration #  6     ecut=    60.00 Ry     beta= 0.30
     Davidson diagonalization with overlap
     ethr =  1.88E-11,  avg # of iterations =  4.0

     negative rho (up, down):  1.284E-04 0.000E+00

     total cpu time spent up to now is     5660.6 secs

     total energy              =   -2833.91929973 Ry
     estimated scf accuracy    <       0.00000002 Ry

     iteration #  7     ecut=    60.00 Ry     beta= 0.30
     Davidson diagonalization with overlap
     ethr =  3.04E-12,  avg # of iterations =  5.5

     negative rho (up, down):  1.284E-04 0.000E+00

     total cpu time spent up to now is     5750.8 secs

     total energy              =   -2833.91929970 Ry
     estimated scf accuracy    <          4.4E-09 Ry

     iteration #  8     ecut=    60.00 Ry     beta= 0.30
     Davidson diagonalization with overlap
     ethr =  7.43E-13,  avg # of iterations =  8.5

     negative rho (up, down):  1.284E-04 0.000E+00

     total cpu time spent up to now is     5844.0 secs

     End of self-consistent calculation

          k = 0.0000 0.0000 0.0000 (154911 PWs)   bands (ev):

   -22.4619 -22.4618 -22.3205 -22.3205 -22.3205 -22.3205 -20.5229 -20.5225
   -20.5072 -20.5072 -20.5067 -20.5067 -20.0434 -20.0431 -20.0271 -20.0271
   -20.0269 -20.0269 -18.7473 -18.7473 -18.7461 -18.7461 -18.7447 -18.7435
   -18.1675 -18.1675 -18.1661 -18.1661 -18.1645 -18.1631 -17.1277 -17.1189
   -17.1189 -16.4830 -16.4615 -16.4615 -15.4432 -15.4432 -15.4432 -15.3803
   -15.3803 -15.3802 -14.8164 -14.8093 -14.8093 -14.8061 -14.8053 -14.8053
   -14.7071 -14.6517 -14.6517 -14.5372 -14.5280 -14.5280 -14.2982 -14.2982
   -14.2879 -13.1420 -13.0677 -13.0677 -12.7688 -12.7688 -12.7623 -12.7542
   -12.7542 -12.7503 -11.7171 -11.7171 -11.7153 -11.6865 -11.6865 -11.6804
   -11.6570 -11.6570 -11.6445 -11.2832 -11.2832 -11.2519 -10.8167 -10.8167
   -10.8107 -10.8040 -10.7908 -10.7908 -10.7777 -10.6913 -10.6913 -10.3749
   -10.3749 -10.3329  -9.8343  -9.7797  -9.7748  -9.7748  -9.7350  -9.7302
    -9.7302  -9.5576  -9.5576  -9.4739  -8.9731  -8.9731  -8.7934  -8.7865
    -8.7759  -8.7759  -8.7597  -8.7597  -8.6015  -8.6015  -8.5108  -8.4595
    -8.4595  -8.4360  -8.3967  -8.3837  -8.3837  -8.1034  -8.1034  -7.9077
    -7.7843  -7.7790  -7.7790  -7.7020  -7.7020  -7.6323  -7.5473  -7.5473
    -7.4988  -7.4455  -7.4419  -7.4419  -7.4153  -7.4153  -7.3260  -7.3194
    -7.3194  -7.3134  -7.2632  -7.2632  -7.1688  -7.1645  -7.1573  -7.1573
    -7.0904  -7.0904  -6.9974  -6.9917  -6.9917  -6.9299  -6.9299  -6.7905
    -6.7348  -6.6806  -6.6806  -6.6288  -6.6082  -6.6082  -6.6004  -6.5833
    -6.5833  -6.5499  -6.5499  -6.5293  -6.5069  -6.4050  -6.3792  -6.2777
    -6.2777  -6.2648  -6.2648  -6.1882  -6.1882  -6.1573  -6.1458  -6.1458
    -6.1304  -6.0876  -6.0876  -6.0480  -6.0219  -6.0219  -6.0010  -5.7398
    -5.7262  -5.7189  -5.7189  -5.7114  -5.7114  -5.6108  -5.6108  -5.5078
    -5.4857  -5.4854  -5.4854  -5.4175  -5.4175  -5.3812  -5.3497  -5.3238
    -5.3238  -5.3073  -5.2989  -5.2989  -5.1900  -5.1662  -5.1662  -5.1200
    -5.1161  -5.1161  -4.9992  -4.9992  -4.9849  -4.8478  -4.8478  -4.7415
    -4.5313  -4.5313  -4.4681  -4.4681  -4.4468  -4.4358  -4.3792  -4.3653
    -4.3653  -4.2971  -4.2971  -4.2560  -4.2247  -4.2247  -4.2199  -4.2081
    -4.1793  -4.1793  -4.0484  -4.0484  -4.0339  -4.0218  -3.9713  -3.9713
    -3.9193  -3.9193  -3.8658  -3.8618  -3.8171  -3.8171  -3.8167  -3.7044
    -3.6832  -3.6832  -3.4758  -3.4758  -3.4646  -3.4646  -3.4390  -3.1772
    -3.1772  -3.1234  -3.1040  -3.0831  -3.0831  -2.8673  -2.8673  -2.7923
    -2.7923  -2.6538  -2.6500  -2.5595  -2.5595  -2.5528  -2.5528  -2.4850
    -2.4781  -2.2251  -2.2251  -2.2133  -2.2133  -2.1875  -2.1784  -2.0095
    -2.0095  -1.9819  -1.9819  -1.8338  -1.8327  -1.6185  -1.6185  -1.5487
    -1.3940  -1.3908  -1.3908  -1.3521  -1.3521  -1.3506  -0.7131  -0.7131
    -0.6364

          k = 0.0000 0.0000-1.5660 (154844 PWs)   bands (ev):

   -22.4025 -22.4025 -22.4024 -22.4024 -22.2897 -22.2896 -20.5550 -20.5550
   -20.5547 -20.5547 -20.4932 -20.4928 -20.0215 -20.0215 -20.0211 -20.0211
   -19.9987 -19.9985 -18.7115 -18.7103 -18.7084 -18.7084 -18.7072 -18.7072
   -18.2196 -18.2183 -18.2155 -18.2155 -18.2142 -18.2142 -17.1087 -17.1087
   -17.1084 -16.4709 -16.4709 -16.4684 -15.4384 -15.4384 -15.4384 -15.3756
   -15.3755 -15.3755 -14.8052 -14.8052 -14.8047 -14.8019 -14.8018 -14.8018
   -14.6672 -14.6672 -14.6529 -14.5796 -14.5796 -14.5745 -14.2901 -14.2901
   -14.2831 -13.1056 -13.1056 -13.0767 -12.7775 -12.7718 -12.7718 -12.7644
   -12.7582 -12.7582 -11.7015 -11.7015 -11.6570 -11.6416 -11.6392 -11.6392
   -11.5871 -11.5823 -11.5823 -11.2391 -11.2391 -11.1780 -10.8490 -10.8469
   -10.8469 -10.8235 -10.8207 -10.8207 -10.7028 -10.7028 -10.6341 -10.3787
   -10.3787 -10.3446  -9.7916  -9.7916  -9.7814  -9.7533  -9.7533  -9.7384
    -9.7384  -9.7378  -9.5833  -9.2956  -9.2956  -8.9219  -8.8649  -8.8649
    -8.8622  -8.8622  -8.8278  -8.8222  -8.5358  -8.4392  -8.4392  -8.2347
    -8.2347  -8.2205  -8.1546  -8.1546  -8.1480  -8.0453  -7.9930  -7.9930
    -7.9327  -7.9327  -7.8671  -7.6867  -7.6015  -7.6015  -7.5424  -7.5421
    -7.5421  -7.5045  -7.4866  -7.4866  -7.4166  -7.4053  -7.3663  -7.3663
    -7.3527  -7.2870  -7.2870  -7.2677  -7.2471  -7.2471  -7.2054  -7.2054
    -7.0332  -7.0048  -6.9541  -6.9541  -6.8545  -6.8545  -6.8204  -6.7313
    -6.7313  -6.7249  -6.6682  -6.6682  -6.6431  -6.5977  -6.5718  -6.5718
    -6.5419  -6.5419  -6.4906  -6.4906  -6.4766  -6.4548  -6.4056  -6.4056
    -6.3743  -6.3743  -6.3556  -6.3556  -6.3244  -6.2780  -6.2696  -6.2696
    -6.1985  -6.1828  -6.1828  -6.1789  -6.1789  -6.1654  -6.1349  -6.1072
    -6.0757  -6.0757  -5.9605  -5.9243  -5.9243  -5.6468  -5.6468  -5.6265
    -5.5797  -5.5001  -5.5001  -5.4687  -5.4687  -5.4084  -5.3862  -5.3862
    -5.3804  -5.3332  -5.2964  -5.2964  -5.1572  -5.1550  -5.1550  -5.1067
    -5.1067  -5.1033  -4.8173  -4.8173  -4.8101  -4.7714  -4.7714  -4.6897
    -4.6015  -4.5057  -4.4801  -4.4801  -4.4582  -4.4582  -4.3568  -4.3568
    -4.3553  -4.2185  -4.2185  -4.2124  -4.1899  -4.1899  -4.1685  -4.1544
    -4.1517  -4.1517  -4.0565  -4.0211  -4.0211  -3.9838  -3.9838  -3.9078
    -3.9001  -3.7701  -3.6875  -3.6545  -3.6545  -3.5102  -3.5102  -3.5052
    -3.4924  -3.4924  -3.4852  -3.4514  -3.4514  -3.3749  -3.3749  -3.1096
    -3.0270  -3.0166  -3.0166  -2.9923  -2.9923  -2.9053  -2.8572  -2.8572
    -2.8191  -2.8191  -2.8062  -2.5361  -2.5316  -2.4940  -2.4940  -2.4869
    -2.4869  -2.2918  -2.2564  -2.2564  -2.2152  -2.1700  -2.1700  -2.0252
    -2.0252  -2.0110  -2.0110  -2.0040  -1.9711  -1.6038  -1.6038  -1.5460
    -1.3873  -1.3873  -1.3787  -1.3528  -1.3528  -1.3476  -0.6926  -0.6741
    -0.6741

     highest occupied level (ev):    -0.6364

!    total energy              =   -2833.91929966 Ry
     estimated scf accuracy    <          9.4E-10 Ry

     The total energy is the sum of the following terms:
     one-electron contribution =   -6464.99969532 Ry
     hartree contribution      =    3420.90839252 Ry
     xc contribution           =    -673.83543442 Ry
     ewald contribution        =    1776.98953819 Ry
     one-center paw contrib.   =    -892.98210063 Ry

     convergence has been achieved in   8 iterations

     negative rho (up, down):  1.284E-04 0.000E+00

     Forces acting on atoms (cartesian axes, Ry/au):

     atom    1 type  1   force =     0.00025851    0.00008961    0.00025286
     atom    2 type  1   force =    -0.00020686    0.00017907    0.00025286
     atom    3 type  1   force =    -0.00005165   -0.00026868    0.00025286
     atom    4 type  1   force =     0.00025851   -0.00008961   -0.00025286
     atom    5 type  1   force =    -0.00005165    0.00026868   -0.00025286
     atom    6 type  1   force =    -0.00020686   -0.00017907   -0.00025286
     atom    7 type  2   force =     0.00005263    0.00051542    0.00003402
     atom    8 type  2   force =    -0.00047268   -0.00021214    0.00003402
     atom    9 type  2   force =     0.00042006   -0.00030329    0.00003402
     atom   10 type  2   force =     0.00005263   -0.00051542   -0.00003402
     atom   11 type  2   force =     0.00042006    0.00030329   -0.00003402
     atom   12 type  2   force =    -0.00047268    0.00021214   -0.00003402
     atom   13 type  2   force =    -0.00026581    0.00099765    0.00015086
     atom   14 type  2   force =    -0.00073109   -0.00072902    0.00015086
     atom   15 type  2   force =     0.00099689   -0.00026863    0.00015086
     atom   16 type  2   force =    -0.00026581   -0.00099765   -0.00015086
     atom   17 type  2   force =     0.00099689    0.00026863   -0.00015086
     atom   18 type  2   force =    -0.00073109    0.00072902   -0.00015086
     atom   19 type  2   force =    -0.00041633    0.00009628   -0.00000886
     atom   20 type  2   force =     0.00012478   -0.00040869   -0.00000886
     atom   21 type  2   force =     0.00029155    0.00031241   -0.00000886
     atom   22 type  2   force =    -0.00041633   -0.00009628    0.00000886
     atom   23 type  2   force =     0.00029155   -0.00031241    0.00000886
     atom   24 type  2   force =     0.00012478    0.00040869    0.00000886
     atom   25 type  3   force =     0.00027607   -0.00010795    0.00063001
     atom   26 type  3   force =    -0.00004455    0.00029306    0.00063001
     atom   27 type  3   force =    -0.00023152   -0.00018511    0.00063001
     atom   28 type  3   force =     0.00027607    0.00010795   -0.00063001
     atom   29 type  3   force =    -0.00023152    0.00018511   -0.00063001
     atom   30 type  3   force =    -0.00004455   -0.00029306   -0.00063001
     atom   31 type  3   force =    -0.00008568   -0.00014564   -0.00015905
     atom   32 type  3   force =     0.00016897   -0.00000138   -0.00015905
     atom   33 type  3   force =    -0.00008328    0.00014702   -0.00015905
     atom   34 type  3   force =    -0.00008568    0.00014564    0.00015905
     atom   35 type  3   force =    -0.00008328   -0.00014702    0.00015905
     atom   36 type  3   force =     0.00016897    0.00000138    0.00015905
     atom   37 type  3   force =    -0.00028210    0.00004463   -0.00048547
     atom   38 type  3   force =     0.00010240   -0.00026662   -0.00048547
     atom   39 type  3   force =     0.00017970    0.00022199   -0.00048547
     atom   40 type  3   force =    -0.00028210   -0.00004463    0.00048547
     atom   41 type  3   force =     0.00017970   -0.00022199    0.00048547
     atom   42 type  3   force =     0.00010240    0.00026662    0.00048547
     atom   43 type  3   force =    -0.00013175    0.00004328    0.00019629
     atom   44 type  3   force =     0.00002839   -0.00013574    0.00019629
     atom   45 type  3   force =     0.00010336    0.00009246    0.00019629
     atom   46 type  3   force =    -0.00013175   -0.00004328   -0.00019629
     atom   47 type  3   force =     0.00010336   -0.00009246   -0.00019629
     atom   48 type  3   force =     0.00002839    0.00013574   -0.00019629
     atom   49 type  3   force =     0.00050433    0.00006121    0.00033987
     atom   50 type  3   force =    -0.00030517    0.00040616    0.00033987
     atom   51 type  3   force =    -0.00019916   -0.00046737    0.00033987
     atom   52 type  3   force =     0.00050433   -0.00006121   -0.00033987
     atom   53 type  3   force =    -0.00019916    0.00046737   -0.00033987
     atom   54 type  3   force =    -0.00030517   -0.00040616   -0.00033987
     atom   55 type  3   force =     0.00013517   -0.00027593    0.00097299
     atom   56 type  3   force =     0.00017137    0.00025503    0.00097299
     atom   57 type  3   force =    -0.00030654    0.00002090    0.00097299
     atom   58 type  3   force =     0.00013517    0.00027593   -0.00097299
     atom   59 type  3   force =    -0.00030654   -0.00002090   -0.00097299
     atom   60 type  3   force =     0.00017137   -0.00025503   -0.00097299
     atom   61 type  3   force =    -0.00022711   -0.00004188   -0.00095901
     atom   62 type  3   force =     0.00014982   -0.00017574   -0.00095901
     atom   63 type  3   force =     0.00007729    0.00021762   -0.00095901
     atom   64 type  3   force =    -0.00022711    0.00004188    0.00095901
     atom   65 type  3   force =     0.00007729   -0.00021762    0.00095901
     atom   66 type  3   force =     0.00014982    0.00017574    0.00095901
     atom   67 type  3   force =     0.00004249    0.00020807   -0.00079913
     atom   68 type  3   force =    -0.00020143   -0.00006724   -0.00079913
     atom   69 type  3   force =     0.00015895   -0.00014083   -0.00079913
     atom   70 type  3   force =     0.00004249   -0.00020807    0.00079913
     atom   71 type  3   force =     0.00015895    0.00014083    0.00079913
     atom   72 type  3   force =    -0.00020143    0.00006724    0.00079913
     atom   73 type  3   force =     0.00039244    0.00022801    0.00069473
     atom   74 type  3   force =    -0.00039368    0.00022586    0.00069473
     atom   75 type  3   force =     0.00000124   -0.00045386    0.00069473
     atom   76 type  3   force =     0.00039244   -0.00022801   -0.00069473
     atom   77 type  3   force =     0.00000124    0.00045386   -0.00069473
     atom   78 type  3   force =    -0.00039368   -0.00022586   -0.00069473
     atom   79 type  3   force =     0.00026963    0.00040615    0.00008747
     atom   80 type  3   force =    -0.00048655    0.00003043    0.00008747
     atom   81 type  3   force =     0.00021692   -0.00043658    0.00008747
     atom   82 type  3   force =     0.00026963   -0.00040615   -0.00008747
     atom   83 type  3   force =     0.00021692    0.00043658   -0.00008747
     atom   84 type  3   force =    -0.00048655   -0.00003043   -0.00008747
     atom   85 type  3   force =    -0.00003569    0.00015250    0.00007960
     atom   86 type  3   force =    -0.00011422   -0.00010716    0.00007960
     atom   87 type  3   force =     0.00014991   -0.00004534    0.00007960
     atom   88 type  3   force =    -0.00003569   -0.00015250   -0.00007960
     atom   89 type  3   force =     0.00014991    0.00004534   -0.00007960
     atom   90 type  3   force =    -0.00011422    0.00010716   -0.00007960
     atom   91 type  3   force =     0.00020764   -0.00000872   -0.00021366
     atom   92 type  3   force =    -0.00009626    0.00018418   -0.00021366
     atom   93 type  3   force =    -0.00011137   -0.00017546   -0.00021366
     atom   94 type  3   force =     0.00020764    0.00000872    0.00021366
     atom   95 type  3   force =    -0.00011137    0.00017546    0.00021366
     atom   96 type  3   force =    -0.00009626   -0.00018418    0.00021366
     atom   97 type  3   force =    -0.00030271   -0.00025803   -0.00037737
     atom   98 type  3   force =     0.00037482   -0.00013314   -0.00037737
     atom   99 type  3   force =    -0.00007211    0.00039117   -0.00037737
     atom  100 type  3   force =    -0.00030271    0.00025803    0.00037737
     atom  101 type  3   force =    -0.00007211   -0.00039117    0.00037737
     atom  102 type  3   force =     0.00037482    0.00013314    0.00037737
     atom  103 type  3   force =    -0.00002760    0.00020687    0.00007817
     atom  104 type  3   force =    -0.00016535   -0.00012733    0.00007817
     atom  105 type  3   force =     0.00019295   -0.00007954    0.00007817
     atom  106 type  3   force =    -0.00002760   -0.00020687   -0.00007817
     atom  107 type  3   force =     0.00019295    0.00007954   -0.00007817
     atom  108 type  3   force =    -0.00016535    0.00012733   -0.00007817
     atom  109 type  3   force =    -0.00010341    0.00005268    0.00047244
     atom  110 type  3   force =     0.00000608   -0.00011590    0.00047244
     atom  111 type  3   force =     0.00009733    0.00006322    0.00047244
     atom  112 type  3   force =    -0.00010341   -0.00005268   -0.00047244
     atom  113 type  3   force =     0.00009733   -0.00006322   -0.00047244
     atom  114 type  3   force =     0.00000608    0.00011590   -0.00047244
     atom  115 type  3   force =     0.00005966   -0.00004884   -0.00023605
     atom  116 type  3   force =     0.00001247    0.00007609   -0.00023605
     atom  117 type  3   force =    -0.00007213   -0.00002725   -0.00023605
     atom  118 type  3   force =     0.00005966    0.00004884    0.00023605
     atom  119 type  3   force =    -0.00007213    0.00002725    0.00023605
     atom  120 type  3   force =     0.00001247   -0.00007609    0.00023605
     atom  121 type  3   force =    -0.00009088   -0.00023125   -0.00004459
     atom  122 type  3   force =     0.00024571    0.00003692   -0.00004459
     atom  123 type  3   force =    -0.00015483    0.00019433   -0.00004459
     atom  124 type  3   force =    -0.00009088    0.00023125    0.00004459
     atom  125 type  3   force =    -0.00015483   -0.00019433    0.00004459
     atom  126 type  3   force =     0.00024571   -0.00003692    0.00004459
     atom  127 type  4   force =     0.00015405   -0.00083006    0.00037092
     atom  128 type  4   force =     0.00064183    0.00054844    0.00037092
     atom  129 type  4   force =    -0.00079588    0.00028162    0.00037092
     atom  130 type  4   force =     0.00015405    0.00083006   -0.00037092
     atom  131 type  4   force =    -0.00079588   -0.00028162   -0.00037092
     atom  132 type  4   force =     0.00064183   -0.00054844   -0.00037092
     atom  133 type  4   force =     0.00009202    0.00034778    0.00024950
     atom  134 type  4   force =    -0.00034720   -0.00009420    0.00024950
     atom  135 type  4   force =     0.00025518   -0.00025359    0.00024950
     atom  136 type  4   force =     0.00009202   -0.00034778   -0.00024950
     atom  137 type  4   force =     0.00025518    0.00025359   -0.00024950
     atom  138 type  4   force =    -0.00034720    0.00009420   -0.00024950
     atom  139 type  4   force =     0.00002818    0.00020896   -0.00032919
     atom  140 type  4   force =    -0.00019505   -0.00008007   -0.00032919
     atom  141 type  4   force =     0.00016687   -0.00012889   -0.00032919
     atom  142 type  4   force =     0.00002818   -0.00020896    0.00032919
     atom  143 type  4   force =     0.00016687    0.00012889    0.00032919
     atom  144 type  4   force =    -0.00019505    0.00008007    0.00032919
     atom  145 type  4   force =     0.00005721    0.00035695    0.00032062
     atom  146 type  4   force =    -0.00033773   -0.00012893    0.00032062
     atom  147 type  4   force =     0.00028052   -0.00022801    0.00032062
     atom  148 type  4   force =     0.00005721   -0.00035695   -0.00032062
     atom  149 type  4   force =     0.00028052    0.00022801   -0.00032062
     atom  150 type  4   force =    -0.00033773    0.00012893   -0.00032062
     atom  151 type  4   force =     0.00005305    0.00028404   -0.00013550
     atom  152 type  4   force =    -0.00027251   -0.00009608   -0.00013550
     atom  153 type  4   force =     0.00021946   -0.00018796   -0.00013550
     atom  154 type  4   force =     0.00005305   -0.00028404    0.00013550
     atom  155 type  4   force =     0.00021946    0.00018796    0.00013550
     atom  156 type  4   force =    -0.00027251    0.00009608    0.00013550
     atom  157 type  4   force =    -0.00034470    0.00036491   -0.00031690
     atom  158 type  4   force =    -0.00014367   -0.00048097   -0.00031690
     atom  159 type  4   force =     0.00048837    0.00011606   -0.00031690
     atom  160 type  4   force =    -0.00034470   -0.00036491    0.00031690
     atom  161 type  4   force =     0.00048837   -0.00011606    0.00031690
     atom  162 type  4   force =    -0.00014367    0.00048097    0.00031690
     atom  163 type  4   force =     0.00029450   -0.00085787   -0.00071536
     atom  164 type  4   force =     0.00059569    0.00068398   -0.00071536
     atom  165 type  4   force =    -0.00089019    0.00017389   -0.00071536
     atom  166 type  4   force =     0.00029450    0.00085787    0.00071536
     atom  167 type  4   force =    -0.00089019   -0.00017389    0.00071536
     atom  168 type  4   force =     0.00059569   -0.00068398    0.00071536
     atom  169 type  4   force =     0.00008184   -0.00005078    0.00009284
     atom  170 type  4   force =     0.00000306    0.00009626    0.00009284
     atom  171 type  4   force =    -0.00008489   -0.00004548    0.00009284
     atom  172 type  4   force =     0.00008184    0.00005078   -0.00009284
     atom  173 type  4   force =    -0.00008489    0.00004548   -0.00009284
     atom  174 type  4   force =     0.00000306   -0.00009626   -0.00009284
     atom  175 type  4   force =     0.00007955    0.00013686   -0.00009779
     atom  176 type  4   force =    -0.00015830    0.00000046   -0.00009779
     atom  177 type  4   force =     0.00007875   -0.00013732   -0.00009779
     atom  178 type  4   force =     0.00007955   -0.00013686    0.00009779
     atom  179 type  4   force =     0.00007875    0.00013732    0.00009779
     atom  180 type  4   force =    -0.00015830   -0.00000046    0.00009779
     atom  181 type  4   force =     0.00005473    0.00013439   -0.00010437
     atom  182 type  4   force =    -0.00014375   -0.00001980   -0.00010437
     atom  183 type  4   force =     0.00008902   -0.00011459   -0.00010437
     atom  184 type  4   force =     0.00005473   -0.00013439    0.00010437
     atom  185 type  4   force =     0.00008902    0.00011459    0.00010437
     atom  186 type  4   force =    -0.00014375    0.00001980    0.00010437
     atom  187 type  4   force =     0.00027267   -0.00001288    0.00005889
     atom  188 type  4   force =    -0.00012518    0.00024258    0.00005889
     atom  189 type  4   force =    -0.00014749   -0.00022970    0.00005889
     atom  190 type  4   force =     0.00027267    0.00001288   -0.00005889
     atom  191 type  4   force =    -0.00014749    0.00022970   -0.00005889
     atom  192 type  4   force =    -0.00012518   -0.00024258   -0.00005889
     atom  193 type  4   force =     0.00024865    0.00002647   -0.00020472
     atom  194 type  4   force =    -0.00014724    0.00020210   -0.00020472
     atom  195 type  4   force =    -0.00010140   -0.00022857   -0.00020472
     atom  196 type  4   force =     0.00024865   -0.00002647    0.00020472
     atom  197 type  4   force =    -0.00010140    0.00022857    0.00020472
     atom  198 type  4   force =    -0.00014724   -0.00020210    0.00020472
     atom  199 type  4   force =    -0.00007436    0.00014834   -0.00006949
     atom  200 type  4   force =    -0.00009129   -0.00013857   -0.00006949
     atom  201 type  4   force =     0.00016565   -0.00000977   -0.00006949
     atom  202 type  4   force =    -0.00007436   -0.00014834    0.00006949
     atom  203 type  4   force =     0.00016565    0.00000977    0.00006949
     atom  204 type  4   force =    -0.00009129    0.00013857    0.00006949
     atom  205 type  5   force =    -0.00013050   -0.00019648   -0.00007034
     atom  206 type  5   force =     0.00023541   -0.00001478   -0.00007034
     atom  207 type  5   force =    -0.00010490    0.00021126   -0.00007034
     atom  208 type  5   force =    -0.00013050    0.00019648    0.00007034
     atom  209 type  5   force =    -0.00010490   -0.00021126    0.00007034
     atom  210 type  5   force =     0.00023541    0.00001478    0.00007034
     atom  211 type  5   force =    -0.00007577   -0.00004332   -0.00004688
     atom  212 type  5   force =     0.00007540   -0.00004396   -0.00004688
     atom  213 type  5   force =     0.00000037    0.00008728   -0.00004688
     atom  214 type  5   force =    -0.00007577    0.00004332    0.00004688
     atom  215 type  5   force =     0.00000037   -0.00008728    0.00004688
     atom  216 type  5   force =     0.00007540    0.00004396    0.00004688

     Total force =     0.008130     Total SCF correction =     0.000043
     Energy error            =      8.5E-05 Ry
     Gradient error          =      1.0E-03 Ry/Bohr

     bfgs converged in   7 scf cycles and   6 bfgs steps
     (criteria: energy <  1.0E-04 Ry, force <  1.0E-03 Ry/Bohr)

     End of BFGS Geometry Optimization

     Final energy             =   -2833.9192996551 Ry

     File ./tmp/a_MOF.bfgs deleted, as requested
Begin final coordinates

ATOMIC_POSITIONS (angstrom)
Mg              10.2292378711        5.4275626367        5.8275399727
Mg              12.1386439406        6.1449985394        1.1546999727
Mg              10.5626231885        7.4398747503        3.4911199727
Mg              -0.7475971289       13.5848732896        5.8545600273
Mg              -0.4142118115       11.5725611760        1.1817200273
Mg               1.1618089406       12.8674373869        3.5181400273
O               11.4481178072        4.4589012126        0.1789744867
O               12.3680893734        7.6849102403        2.5153944867
O                9.1142978194        6.8686244734        4.8518144867
O                0.4712828073       14.5535347137        4.4938655133
O               -1.8625371806       12.1438114529        6.8302855133
O                1.3912543734       11.3275256860        2.1574455133
O               10.8157021070        5.4809799319        2.6539296938
O               11.7991510879        6.6261828185        4.9903496938
O               10.3156518052        6.9052731759        0.3175096938
O               -0.1611328930       13.5314559944        2.0189103062
O               -0.6611831948       12.1071627504        4.3553303062
O                0.8223160879       12.3862531078        6.6917503062
O               10.2328156831        4.0564163171        4.2819163663
O               13.3243025796        6.8336701753        6.6183363663
O                9.3733867374        8.1223494340        1.9454963663
O               -0.7440193169       14.9560196092        0.3909236337
O               -1.6034482626       10.8900864923        2.7273436337
O                2.3474675796       12.1787657510        5.0637636337
H               10.5706359442        1.7585856441        3.7760932118
H               15.1453721854        8.2751464398        6.1125132118
H                7.2144968704        8.9787038424        1.4396732118
H               -0.4061990558       17.2538502822        0.8967467882
H               -3.7623381296       10.0337320839        3.2331667882
H                4.1685371854       10.7372894865        5.5695867882
H                0.8058869314       18.9795276955        0.0620481238
H               -5.8628616018       10.2205906337        2.3984681238
H                5.0569746705        8.8247535234        4.7348881238
H               11.7827219313        0.0329082308        4.6107918762
H               16.0338096705       10.1876824029        6.9472118762
H                5.1139733982        8.7918452926        2.2743718762
H               11.8785739334        2.2078466598        6.0412491198
H               14.1023317383        9.1832234573        1.3684091198
H                6.9495993283        7.6213658093        3.7048291198
H                0.9017389335       16.8045892665        5.6408508802
H               -4.0272356717       11.3910701170        0.9680108802
H                3.1254967383        9.8292124690        3.3044308802
H                2.7227276438       15.5477941157        1.4785545960
H               -3.8493134989       13.5964901756        3.8149745960
H                1.1265858552        8.8805875613        6.1513945960
H               13.6995626438        3.4646418106        3.1942854040
H               12.1034208551       10.1318483650        5.5307054040
H                7.1275215011        5.4159457507        0.8578654040
H                3.6208262715       14.1501086787        5.8984364583
H               -3.0879317178       15.0731091207        1.2255964583
H               -0.5328945537        8.8016540531        3.5620164583
H               14.5976612715        4.8623272476        5.7836635417
H               10.4439404463       10.2107818732        1.1108235417
H                7.8889032822        3.9393268056        3.4472435417
H                6.0020006417       13.6414156050        5.6259921562
H               -3.8379777783       17.3896131531        0.9531521562
H               -2.1640228633        6.9938430945        3.2895721562
H               16.9788356417        5.3710203213        6.0561078438
H                8.8128121367       12.0185928318        1.3832678438
H                7.1388572216        1.6228227732        3.7196878438
H                5.4019061885       14.9021560976        4.5357875927
H               -4.6297638459       16.2395458656        6.8722075927
H               -0.7721423425        6.8831698894        2.1993675927
H               16.3787411885        4.1102798287        0.1370524073
H               10.2046926575       12.1292660369        2.4734724073
H                6.3470711541        2.7728900607        4.8098924073
H                5.0330447652       16.4292253707        1.3732271416
H               -5.7678139180       15.1565678659        3.7096471416
H                0.7347691529        6.4390786160        6.0460671416
H               16.0098797651        2.5832105556        3.2996128584
H               11.7116041529       12.5733573103        5.6360328584
H                5.2090210820        3.8558680604        0.9631928584
H                5.5943636980       15.1452983970        2.4498561367
H               -4.9365600086       16.2846478083        4.7862761367
H               -0.6578036893        6.5949256474        0.1134361367
H               16.5711986979        3.8671375293        2.2229838633
H               10.3190313107       12.4175102789        4.5594038633
H                6.0402749914        2.7277881180        6.8958238633
H                7.2665750973       14.3995581614        0.8065735938
H               -5.1268357197       18.1056954784        3.1429935938
H               -2.1397393776        5.5196182128        5.4794135938
H               18.2434100973        4.6128777649        3.8662664062
H                8.8370956224       13.4928177135        6.2026864062
H                5.8499992803        0.9067404479        1.5298464062
H                7.4984098975       16.1202215375        1.1049986510
H               -6.7328913148       17.4461386167        3.4414186510
H               -0.7655185825        4.4585116984        5.7778386510
H               18.4752448975        2.8922143888        3.5678413490
H               10.2113164175       14.5539242279        5.9042613490
H                4.2439436852        1.5662973096        1.2314213490
H                6.2529906318       16.6748390863        6.0200686878
H               -6.5904945687       16.0902651200        1.3472286878
H                0.3375039369        5.2597676463        3.6836486878
H               17.2298256318        2.3375968400        5.6620313122
H               11.3143389369       13.7526682800        0.9891913122
H                4.3863404313        2.9221708063        3.3256113122
H                7.5691535403       15.5578254961        5.6369212842
H               -6.2812138773       17.7886024293        0.9640812842
H               -1.2879396629        4.6784439273        3.3005012842
H               18.5459885403        3.4546104302        6.0451787158
H                9.6888953371       14.3339919990        1.3723387158
H                4.6956211227        1.2238334970        3.7087587158
H                2.3373221740       13.9798895770        0.7865486257
H               -2.2987656026       14.0466715173        3.1229686257
H               -0.0385565712        9.9983107584        5.4593886257
H               13.3141571739        5.0325463493        3.8862913743
H               10.9382784288        9.0141251679        6.2227113743
H                8.6780693973        4.9657644090        1.5498713743
H                4.8347848442       13.4136703933        0.8708730070
H               -3.0571367407       16.4926472265        3.2072930070
H               -1.7776481035        8.1185542328        5.5437130070
H               15.8116198442        5.5987655330        3.8019669930
H                9.1991868965       10.8938816935        6.1383869930
H                7.9196982593        2.5197886998        1.4655469930
H                3.6974151840       13.1537257328        2.8536765931
H               -2.2633332310       15.6376285375        5.1900965931
H               -1.4340819529        9.2335175822        0.5172565931
H               14.6742501840        5.8587101935        1.8191634069
H                9.5427530471        9.7789183441        4.1555834069
H                8.7135017690        3.3748073888        6.4920034069
H                3.2885398092       14.6035793658        3.4775326908
H               -3.3145056216       14.5586052595        5.8139526908
H                0.0259658125        8.8626872273        1.1411126908
H               14.2653748091        4.4088565605        1.1953073092
H               11.0028008125       10.1497486990        3.5317273092
H                7.6623293784        4.4538306668        5.8681473092
C               11.3176347652        3.2783308318        0.8018486814
C               13.4557348351        8.1621938014        3.1382686814
C                8.1571353998        7.5719112930        5.4746886814
C                0.3407997652       15.7341050945        3.8709913186
C               -2.8196996002       11.4405246333        6.2074113186
C                2.4788998351       10.8502421249        1.5345713186
C               10.9482296593        3.1270050125        2.1851216594
C               13.7714893917        7.9179425052        4.5215416594
C                8.2107859489        7.9674884086        6.8579616594
C               -0.0286053407       15.8854309138        2.4877183406
C               -2.7660490511       11.0449475177        4.8241383406
C                2.7946543917       11.0944934211        0.1512983406
C               10.8727740911        1.8301987956        2.7394868661
C               14.9322843035        8.5009991747        5.0759068661
C                7.1254466055        8.6812379560        0.4030668661
C               -0.1040609088       17.1822371307        1.9333531339
C               -3.8513883945       10.3311979703        4.2697731339
C                3.9554493035       10.5114367516        6.6061931339
C               11.1647449841        0.6703995878        2.0158007752
C               15.7907144343        9.3337529892        4.3522207752
C                5.9750455817        9.0082833493        6.6886407752
C                0.1879099841       18.3420363385        2.6570392248
C               -5.0017894183       10.0041525770        4.9934592248
C                4.8138794343        9.6786829371        0.3206192248
C               11.5168873014        0.8355865986        0.6536806354
C               15.4715871278        9.5561236763        2.9901006354
C                5.9420305708        8.6207256514        5.3265206354
C                0.5400523015       18.1768493277        4.0191593646
C               -5.0348044292       10.3917102749        6.3555793646
C                4.4947521278        9.4563122500        1.6827393646
C               11.5790921161        2.0915639776        0.0676315266
C               14.3527764037        8.9820059366        2.4040515266
C                6.9986364802        7.9388660121        4.7404715266
C                0.6022571162       16.9208719487        4.6052084734
C               -3.9781985198       11.0735699142        6.9416284734
C                3.3759414037       10.0304299897        2.2687884734
C               10.6493785552        4.2768696778        3.0912907298
C               12.9251029327        7.0841975245        5.4277107298
C                9.3560235120        7.6513687241        0.7548707298
C               -0.3274564448       14.7355662485        1.5815492702
C               -1.6208114880       11.3610672022        3.9179692702
C                1.9482679327       11.9282384018        6.2543892702
C                4.4472246219       14.4481440048        0.7479661842
C               -3.7592370566       15.6397734228        3.0843861842
C               -0.6879875653        7.9369544250        5.4208061842
C               15.4240596219        4.5642919215        3.9248738158
C               10.2888474347       11.0754815013        6.2612938158
C                7.2175979434        3.3726625035        1.5884538158
C                5.5903259940       14.6689284318        5.5854285837
C               -4.5219926652       16.5193360367        0.9125885837
C               -1.0683333288        6.8366073842        3.2490085837
C               16.5671609940        4.3435074945        6.0966714163
C                9.9085016712       12.1758285421        1.4238314163
C                6.4548423347        2.4930998896        3.7602514163
C                6.6182386642       15.6526451397        6.1703419170
C               -5.8878726594       16.9176761679        1.4975019170
C               -0.7303660047        5.4545505450        3.8339219170
C               17.5950736641        3.3597907866        5.5117580830
C               10.2464689953       13.5578853813        0.8389180830
C                5.0889623406        2.0947597584        3.1753380830
C                5.4548322884       15.4167852041        1.3996188665
C               -5.1019087756       16.0280666593        3.7360388665
C               -0.3529235127        6.5800199892        6.0724588665
C               16.4316672883        3.5956507222        3.2732211335
C               10.6239114873       12.4324159371        5.6096411335
C                5.8749262244        2.9843692670        0.9368011335
C                6.8112658367       15.3885694752        0.6682836971
C               -5.7556900118       17.2168804351        3.0047036971
C               -1.0555758248        5.4194219422        5.3411236971
C               17.7881008366        3.6238664511        4.0045563029
C                9.9212591751       13.5930139841        6.3409763029
C                5.2211449882        1.7955554912        1.6681363029
C                3.0582998165       14.5103647142        1.4078895016
C               -3.1186593689       14.4058189026        3.7443095016
C                0.0603595525        9.1086882357        6.0807295016
C               14.0351348165        4.5020712121        3.2649504984
C               11.0371945525        9.9037476906        5.6013704984
C                7.8581756311        4.6066170237        0.9285304984
N                4.3069690389       14.7780759332        6.3189044126
N               -3.9748386966       15.3533425607        1.6460644126
N               -0.3321303422        7.8934533588        3.9824844126
N               15.2838040388        4.2343599931        5.3631955874
N               10.6447046578       11.1189825675        0.6903555874
N                7.0019963034        3.6590933656        3.0267755874
N                3.0088672833       13.9083582665        2.7847031498
N               -2.5725902253       14.6640122970        5.1211231498
N               -0.4362770579        9.4525012891        0.4482831498
N               13.9857022833        5.1040776598        1.8881368502
N               10.5405579421        9.5599346372        4.2245568502
N                8.4042447747        4.3484236293        6.5609768502
End final coordinates



     Writing all to output data dir ./tmp/a_MOF.save/ :
     XML data file, charge density, pseudopotentials, collected wavefunctions

     init_run     :     68.11s CPU     47.93s WALL (       1 calls)
     electrons    :   9202.58s CPU   5588.03s WALL (       7 calls)
     update_pot   :     42.27s CPU     34.87s WALL (       6 calls)
     forces       :    218.23s CPU    161.74s WALL (       7 calls)

     Called by init_run:
     wfcinit      :     51.98s CPU     32.76s WALL (       1 calls)
     potinit      :     10.34s CPU      9.48s WALL (       1 calls)
     hinit0       :      1.42s CPU      1.17s WALL (       1 calls)

     Called by electrons:
     c_bands      :   7471.32s CPU   4292.82s WALL (      70 calls)
     sum_band     :   1135.63s CPU    763.54s WALL (      70 calls)
     v_of_rho     :    400.53s CPU    351.64s WALL (      72 calls)
     newd         :    175.32s CPU    181.02s WALL (      72 calls)
     PAW_pot      :     68.90s CPU     42.51s WALL (      78 calls)
     mix_rho      :     10.63s CPU      8.97s WALL (      70 calls)
     vdW_kernel   :      3.71s CPU      3.71s WALL (       1 calls)

     Called by c_bands:
     init_us_2    :     58.37s CPU     58.19s WALL (     308 calls)
     cegterg      :   7417.85s CPU   4239.49s WALL (     140 calls)

     Called by *egterg:
     cdiaghg      :    159.40s CPU     84.64s WALL (     778 calls)
     h_psi        :   4587.84s CPU   2685.41s WALL (     802 calls)
     s_psi        :    543.77s CPU    278.75s WALL (     802 calls)
     g_psi        :     15.60s CPU      8.08s WALL (     660 calls)

     Called by h_psi:
     h_psi:calbec :    700.33s CPU    372.86s WALL (     802 calls)
     vloc_psi     :   3327.04s CPU   2016.99s WALL (     802 calls)
                                        0.00s GPU  (     802 calls)
     add_vuspsi   :    539.80s CPU    278.65s WALL (     802 calls)

     General routines
     calbec       :   1012.74s CPU    536.92s WALL (    1010 calls)
     fft          :    317.14s CPU    247.40s WALL (    4960 calls)
     ffts         :      3.64s CPU      2.72s WALL (     142 calls)
     fftw         :   3495.85s CPU   2160.29s WALL (  280242 calls)
     interpolate  :      6.26s CPU      4.61s WALL (      72 calls)

     Parallel routines

     PWSCF        :      2h39m CPU      1h37m WALL


   This run was terminated on:  12:42:56  16Sep2026            

=------------------------------------------------------------------------------=
   JOB DONE.
=------------------------------------------------------------------------------=
Note: The following floating-point exceptions are signalling: IEEE_INVALID_FLAG IEEE_UNDERFLOW_FLAG IEEE_DENORMAL
Note: The following floating-point exceptions are signalling: IEEE_INVALID_FLAG IEEE_UNDERFLOW_FLAG IEEE_DENORMAL
Note: The following floating-point exceptions are signalling: IEEE_INVALID_FLAG IEEE_UNDERFLOW_FLAG IEEE_DENORMAL
Note: The following floating-point exceptions are signalling: IEEE_INVALID_FLAG IEEE_UNDERFLOW_FLAG IEEE_DENORMAL
Note: The following floating-point exceptions are signalling: IEEE_INVALID_FLAG IEEE_UNDERFLOW_FLAG IEEE_DENORMAL
Note: The following floating-point exceptions are signalling: IEEE_INVALID_FLAG IEEE_UNDERFLOW_FLAG IEEE_DENORMAL
Note: The following floating-point exceptions are signalling: IEEE_INVALID_FLAG IEEE_UNDERFLOW_FLAG IEEE_DENORMAL
Note: The following floating-point exceptions are signalling: IEEE_INVALID_FLAG IEEE_UNDERFLOW_FLAG IEEE_DENORMAL
Note: The following floating-point exceptions are signalling: IEEE_INVALID_FLAG IEEE_UNDERFLOW_FLAG IEEE_DENORMAL
Note: The following floating-point exceptions are signalling: IEEE_INVALID_FLAG IEEE_UNDERFLOW_FLAG IEEE_DENORMAL
Note: The following floating-point exceptions are signalling: IEEE_INVALID_FLAG IEEE_UNDERFLOW_FLAG IEEE_DENORMAL
Note: The following floating-point exceptions are signalling: IEEE_INVALID_FLAG IEEE_UNDERFLOW_FLAG IEEE_DENORMAL
Note: The following floating-point exceptions are signalling: IEEE_INVALID_FLAG IEEE_UNDERFLOW_FLAG IEEE_DENORMAL
Note: The following floating-point exceptions are signalling: IEEE_INVALID_FLAG IEEE_UNDERFLOW_FLAG IEEE_DENORMAL
Note: The following floating-point exceptions are signalling: IEEE_INVALID_FLAG IEEE_UNDERFLOW_FLAG IEEE_DENORMAL
Note: The following floating-point exceptions are signalling: IEEE_INVALID_FLAG IEEE_UNDERFLOW_FLAG IEEE_DENORMAL
Note: The following floating-point exceptions are signalling: IEEE_INVALID_FLAG IEEE_UNDERFLOW_FLAG IEEE_DENORMAL
Note: The following floating-point exceptions are signalling: IEEE_INVALID_FLAG IEEE_UNDERFLOW_FLAG IEEE_DENORMAL
Note: The following floating-point exceptions are signalling: IEEE_INVALID_FLAG IEEE_UNDERFLOW_FLAG IEEE_DENORMAL
Note: The following floating-point exceptions are signalling: IEEE_INVALID_FLAG IEEE_UNDERFLOW_FLAG IEEE_DENORMAL
Note: The following floating-point exceptions are signalling: IEEE_INVALID_FLAG IEEE_UNDERFLOW_FLAG IEEE_DENORMAL
Note: The following floating-point exceptions are signalling: IEEE_INVALID_FLAG IEEE_UNDERFLOW_FLAG IEEE_DENORMAL
Note: The following floating-point exceptions are signalling: IEEE_INVALID_FLAG IEEE_UNDERFLOW_FLAG IEEE_DENORMAL
Note: The following floating-point exceptions are signalling: IEEE_INVALID_FLAG IEEE_UNDERFLOW_FLAG IEEE_DENORMAL
