&CONTROL
   calculation      = 'scf'
   outdir           = './tmp'
   prefix           = 'c_MOF_CO2_free'
   disk_io          = 'none'
   pseudo_dir       = '/home/seyoung/pseudo'
/
&SYSTEM
   ecutwfc          = 60
   ecutrho          = 480
   nosym            = .true.
   occupations      = 'fixed'
   nspin            = 1
   input_dft        = 'pbe'
   vdw_corr         = 'dft-d3'
   ntyp             = 5
   nat              = 219
   ibrav            = 0
/
&ELECTRONS
   electron_maxstep = 200
   conv_thr         = 1e-07
   mixing_beta      = 0.3
/
&IONS
/
&CELL
/
&FCP
/
&RISM
/
ATOMIC_SPECIES
Mg 24.305 Mg.pbe-n-kjpaw_psl.0.3.0.UPF
O 15.999 O.pbe-n-kjpaw_psl.0.1.UPF
H 1.008 H.pbe-rrkjus_psl.1.0.0.UPF
C 12.011 C.pbe-n-kjpaw_psl.1.0.0.UPF
N 14.007 N.pbe-n-radius_5.UPF

K_POINTS automatic
1 1 2  0 0 0

CELL_PARAMETERS angstrom
21.95367003689136 0.00000000000000 0.00000000000000
-10.97683501844568 19.01242709369884 0.00000000000000
0.00000000000000 0.00000000000000 7.00925800102849

ATOMIC_POSITIONS angstrom
Mg 10.2318909332 5.4266102332 5.8296110134  
Mg 12.1380802692 6.1478134467 1.1567591645  
Mg 10.5604511218 7.4381157930 3.4932438342  
Mg -0.7448775120 13.5857925896 5.8525008355  
Mg -0.4163631482 11.5743825934 1.1796489866  
Mg 1.1613716722 12.8646768433 3.5160161658  
O 11.4511832903 4.4598400592 0.1811779365  
O 12.3657591322 7.6870388732 2.5176150059  
O 9.1135916571 6.8654948776 4.8540222856  
O 0.4742913781 14.5525809821 4.4916449941  
O -1.8632568570 12.1469356624 6.8280820635  
O 1.3888971451 11.3253493336 2.1552377144  
O 10.8120984680 5.4832081038 2.6537169138  
O 11.7990593520 6.6218899179 4.9901074831  
O 10.3193908425 6.9072864495 0.3172639121  
O -0.1648047860 13.5292300985 2.0191525169  
O -0.6574517218 12.1051559933 4.3555430862  
O 0.8221901153 12.3904978459 6.6919960879  
O 10.2276373636 4.0569453022 4.2795916042  
O 13.3264265801 6.8289080748 6.6160187952  
O 9.3763769159 8.1264306509 1.9432109291  
O -0.7492054171 14.9554779974 0.3932412048  
O -1.6004009883 10.8858664287 2.7296683958  
O 2.3495069278 12.1833959300 5.0660490709  
H 10.5772468296 1.7583661180 3.7792495542  
H 15.1422623769 8.2809892952 6.1156732151  
H 7.2110114974 8.9731092555 1.4428236633  
H -0.3995840903 17.2540785367 0.8935867849  
H -3.7658336874 10.0393475156 3.2300104458  
H 4.1654348175 10.7314737715 5.5664363367  
H 0.8036202811 18.9803218741 0.0611069324  
H -5.8624183415 10.2182036762 2.3975079033  
H 5.0588242504 8.8263738245 4.7339276714  
H 11.7804331354 0.0320986267 4.6117520967  
H 16.0356307745 10.1861165154 6.9481530676  
H 5.1144518301 8.7942572264 2.2753323286  
H 11.8704826190 2.2095666541 6.0373346885  
H 14.1048600618 9.1753540982 1.3644960278  
H 6.9551542965 7.6275390808 3.7009026999  
H 0.8936597069 16.8028441794 5.6447639722  
H -4.0217004556 11.3849228303 0.9719253115  
H 3.1280654641 9.8371098483 3.3083573001  
H 2.7215850844 15.5494068114 1.4816339148  
H -3.8500460256 13.5946883740 3.8180835274  
H 1.1285209293 8.8808703815 6.1544353818  
H 13.6983685013 3.4631065231 3.1911764726  
H 12.1053887702 10.1316652273 5.5276260852  
H 7.1267988935 5.4177629841 0.8548246182  
H 3.6243563991 14.1470330760 5.9012947574  
H -3.0867973017 15.0773945737 1.2284795956  
H -0.5370664940 8.8005524934 3.5647655883  
H 14.6008053746 4.8654524073 5.7807804044  
H 10.4395118324 10.2123012520 1.1079652426  
H 7.8900352737 3.9351630194 3.4444944117  
H 6.0035877079 13.6416587325 5.6377110378  
H -3.8386728079 17.3906732930 0.9648533659  
H -2.1646429329 6.9926688615 3.3012291034  
H 16.9801012646 5.3709484780 6.0444066341  
H 8.8122291582 12.0200888352 1.3715489622  
H 7.1381503408 1.6216986607 3.7080308966  
H 5.4013864824 14.8964273495 4.5352885897  
H -4.6245135713 16.2418966956 6.8718211212  
H -0.7768182380 6.8866180634 2.1988956506  
H 16.3781519297 4.1160021150 0.1374388788  
H 10.1999912692 12.1259515842 2.4739714103  
H 6.3523953081 2.7705647034 4.8103643494  
H 5.0356887587 16.4311639472 1.3628053683  
H -5.7705102303 15.1577866175 3.6992166418  
H 0.7349553306 6.4360565662 6.0356797174  
H 16.0122833911 2.5814848564 3.3100433582  
H 11.7119610127 12.5766163641 5.6464546317  
H 5.2063108212 3.8545182701 0.9735802826  
H 5.6010930585 15.1539432353 2.4504815579  
H -4.9473006945 16.2860957195 4.7869182853  
H -0.6537797223 6.5849479401 0.1140123250  
H 16.5778229688 3.8585597781 2.2223417147  
H 10.3231532801 12.4276604952 4.5587784421  
H 6.0296220599 2.7262841220 6.8952476750  
H 7.2736474399 14.4050552479 0.8069460625  
H -5.1347178381 18.1088588355 3.1434623612  
H -2.1387394214 5.5116654593 5.4797212387  
H 18.2500907041 4.6076333287 3.8657976388  
H 8.8383200677 13.5016910851 6.2023139375  
H 5.8426120156 0.9036300587 1.5295387613  
H 7.5002042493 16.1256077622 1.1035412227  
H -6.7371775494 17.4442735277 3.4417265910  
H -0.7622315599 4.4558297547 5.7780869333  
H 18.4757728003 2.8875698563 3.5675334090  
H 10.2150838489 14.5581712946 5.9057187773  
H 4.2399775425 1.5678029829 1.2311730667  
H 6.2571817523 16.6766967088 6.0163505995  
H -6.5936442538 16.0927364894 1.3429741745  
H 0.3369128657 5.2561028363 3.6796014934  
H 17.2335407431 2.3361048174 5.6662858255  
H 11.3138521250 13.7572267081 0.9929094005  
H 4.3834621484 2.9198265186 3.3296585066  
H 7.5685925134 15.5554251585 5.6304849486  
H -6.2781312289 17.7886785941 0.9567583701  
H -1.2900531534 4.6816428826 3.2930427335  
H 18.5445131768 3.4573181644 6.0525016299  
H 9.6870970972 14.3323059668 1.3787750514  
H 4.6994482445 1.2236026383 3.7162172665  
H 2.3369404674 13.9837960822 0.7858852844  
H -2.3017840166 14.0442444430 3.1223924751  
H -0.0349030828 9.9969787437 5.4587385250  
H 13.3135644729 5.0287187890 3.8868675249  
H 10.9418524148 9.0157478529 6.2233747156  
H 8.6750890945 4.9682624154 1.5505214750  
H 4.8339590446 13.4144767422 0.8774475558  
H -3.0571641735 16.4914549397 3.2138763307  
H -1.7765891109 8.1192093594 5.5501961561  
H 15.8106010099 5.5981456321 3.7953836693  
H 9.2002981149 10.8935697046 6.1318124442  
H 7.9197361193 2.5210333775 1.4590638439  
H 3.6978465413 13.1528556364 2.8494377370  
H -2.2626758109 15.6383538551 5.1859595339  
H -1.4350307512 9.2336409129 0.5130199890  
H 14.6745496174 5.8596421947 1.8233004661  
H 9.5417838428 9.7788568623 4.1598222630  
H 8.7140829757 3.3740473707 6.4962400110  
H 3.2869605108 14.5998887326 3.4777702301  
H -3.3104644454 14.5590211652 5.8142430278  
H 0.0236134255 8.8659658690 1.1412792480  
H 14.2637144059 4.4125642745 1.1950169722  
H 11.0003942795 10.1465356698 3.5314897699  
H 7.6663449590 4.4534327608 5.8679807520  
C 11.3188814706 3.2783922173 0.8025813382  
C 13.4550795440 8.1631943748 3.1389959962  
C 8.1565683919 7.5708081220 5.4754201858  
C 0.3419939327 15.7340378825 3.8702640038  
C -2.8202697915 11.4416350047 6.2066786618  
C 2.4782279650 10.8491994961 1.5338398142  
C 10.9501188535 3.1277188935 2.1860370874  
C 13.7699604566 7.9191735690 4.5224494973  
C 8.2104512548 7.9654932212 6.8588775383  
C -0.0267747406 15.8847223490 2.4868105027  
C -2.7663754091 11.0469405482 4.8232229126  
C 2.7930938558 11.0932059738 0.1503824617  
C 10.8758726283 1.8307846025 2.7411278723  
C 14.9302486576 8.5033655594 5.0775409408  
C 7.1244030285 8.6782649942 0.4047062323  
C -0.1009937366 17.1816574020 1.9317190592  
C -3.8524303395 10.3341742857 4.2681321277  
C 3.9533964315 10.5090465065 6.6045537677  
C 11.1668045742 0.6712657747 2.0163525592  
C 15.7889421622 9.3350881925 4.3527602951  
C 5.9747722235 9.0060797853 6.6891856383  
C 0.1899524402 18.3411691075 2.6564997049  
C -5.0020690735 10.0063693278 4.9929074408  
C 4.8121077709 9.6773444199 0.3200743617  
C 11.5158605676 0.8368681101 0.6527687319  
C 15.4709960975 9.5545615190 2.9891729884  
C 5.9436728716 8.6210034048 5.3255979384  
C 0.5389949488 18.1755564018 4.0200870116  
C -5.0331812408 10.3914618531 6.3564912681  
C 4.4941715189 9.4578734009 1.6836620616  
C 11.5755420573 2.0925318287 0.0656391211  
C 14.3537179091 8.9784112234 2.4020461837  
C 7.0012628848 7.9414709102 4.7384720759  
C 0.5986732506 16.9198899598 4.6072138163  
C -3.9755853067 11.0709793987 6.9436208789  
C 3.3768841093 10.0340069718 2.2707879241  
C 10.6476269289 4.2776551288 3.0902808255  
C 12.9253181041 7.0822589954 5.4266963684  
C 9.3575574797 7.6524615371 0.7538663557  
C -0.3292428459 14.7347833279 1.5825636316  
C -1.6192554543 11.3599429748 3.9189791745  
C 1.9484473528 11.9301132633 6.2553936443  
C 4.4486743200 14.4493819909 0.7503780138  
C -3.7607020690 15.6402835585 3.0867883933  
C -0.6876873971 7.9354972873 5.4231882571  
C 15.4252339186 4.5632782514 3.9224716067  
C 10.2891947131 11.0773559697 6.2588819862  
C 7.2161859410 3.3721938879 1.5860717429  
C 5.5912144527 14.6685794437 5.5871486392  
C -4.5217940361 16.5200685032 0.9143904585  
C -1.0690899488 6.8365541040 3.2507249640  
C 16.5676960141 4.3440457456 6.0948695415  
C 9.9077552094 12.1764234758 1.4221113608  
C 6.4551745028 2.4924179974 3.7585350360  
C 6.6200703978 15.6539042788 6.1676046665  
C -5.8895436141 16.9184877455 1.4946416657  
C -0.7303261327 5.4529230131 3.8312570733  
C 17.5966119883 3.3587494862 5.5146183343  
C 10.2466435750 13.5601012787 0.8416553335  
C 5.0875329206 2.0939805226 3.1780029267  
C 5.4583605670 15.4194002142 1.3981975537  
C -5.1055183306 16.0296015946 3.7346751315  
C -0.3525409949 6.5761916890 6.0710249408  
C 16.4348013587 3.5932922236 3.2745848685  
C 10.6244120132 12.4367790210 5.6110624463  
C 5.8714195603 2.9827863870 0.9382350592  
C 6.8151453774 15.3919462679 0.6662465002  
C -5.7598752682 17.2182382660 3.0025650397  
C -1.0548468937 5.4150857765 5.3391758572  
C 17.7913693808 3.6209208281 4.0066949603  
C 9.9222437929 13.5980621612 6.3430134998  
C 5.2170252930 1.7940186812 1.6700841428  
C 3.0583091875 14.5125488576 1.4084528628  
C -3.1203614727 14.4046385537 3.7449467745  
C 0.0622522639 9.1078631142 6.0812777451  
C 14.0349636563 4.5000069726 3.2643132255  
C 11.0390813907 9.9048478778 5.6008071372  
C 7.8565146992 4.6078435991 0.9279822549  
N 4.3083405647 14.7774480917 6.3208406337  
N -3.9746852988 15.3546764688 1.6480401177  
N -0.3333747779 7.8929749136 3.9843840994  
N 15.2848825382 4.2351597935 5.3612198823  
N 10.6434751683 11.1198564230 0.6884193663  
N 7.0022041757 3.6577764301 3.0248759006  
N 3.0078974414 13.9064318528 2.7831060980  
N -2.5703650140 14.6640754672 5.1195995414  
N -0.4374530641 9.4544168403 0.4466888690  
N 13.9846443846 5.1060363344 1.8896604586  
N 10.5393745399 9.5581315227 4.2261539020  
N 8.4064916938 4.3483629537 6.5625711310  
C 10.7019869971 18.5363852210 3.5046300000  
O 10.7014107485 18.5366292621 2.3314381411  
O 10.7024864672 18.5360081956 4.6778218589  

