&CONTROL
   calculation      = 'scf'
   outdir           = './tmp'
   prefix           = 'a_MOF'
   disk_io          = 'none'
   pseudo_dir       = '/home/seyoung/pseudo'
/
&SYSTEM
   ecutwfc          = 60
   ecutrho          = 480
   occupations      = 'fixed'
   nspin            = 1
   input_dft        = 'scan'
   ntyp             = 5
   nat              = 216
   ibrav            = 0
/
&ELECTRONS
   electron_maxstep = 200
   conv_thr         = 1e-07
   mixing_beta      = 0.3
/
&IONS
/
&CELL
/
&FCP
/
&RISM
/
ATOMIC_SPECIES
Mg 24.305 Mg.pbe-n-kjpaw_psl.0.3.0.UPF
O 15.999 O.pbe-n-kjpaw_psl.0.1.UPF
H 1.008 H.pbe-rrkjus_psl.1.0.0.UPF
C 12.011 C.pbe-n-kjpaw_psl.1.0.0.UPF
N 14.007 N.pbe-n-radius_5.UPF

K_POINTS automatic
1 1 2  0 0 0

CELL_PARAMETERS angstrom
21.95367003689136 0.00000000000000 0.00000000000000
-10.97683501844568 19.01242709369884 0.00000000000000
0.00000000000000 0.00000000000000 7.00925800102849

ATOMIC_POSITIONS angstrom
Mg 10.2292378711 5.4275626367 5.8275399727  
Mg 12.1386439406 6.1449985394 1.1546999727  
Mg 10.5626231885 7.4398747503 3.4911199727  
Mg -0.7475971289 13.5848732896 5.8545600273  
Mg -0.4142118115 11.5725611760 1.1817200273  
Mg 1.1618089406 12.8674373869 3.5181400273  
O 11.4481178072 4.4589012126 0.1789744867  
O 12.3680893734 7.6849102403 2.5153944867  
O 9.1142978194 6.8686244734 4.8518144867  
O 0.4712828073 14.5535347137 4.4938655133  
O -1.8625371806 12.1438114529 6.8302855133  
O 1.3912543734 11.3275256860 2.1574455133  
O 10.8157021070 5.4809799319 2.6539296938  
O 11.7991510879 6.6261828185 4.9903496938  
O 10.3156518052 6.9052731759 0.3175096938  
O -0.1611328930 13.5314559944 2.0189103062  
O -0.6611831948 12.1071627504 4.3553303062  
O 0.8223160879 12.3862531078 6.6917503062  
O 10.2328156831 4.0564163171 4.2819163663  
O 13.3243025796 6.8336701753 6.6183363663  
O 9.3733867374 8.1223494340 1.9454963663  
O -0.7440193169 14.9560196092 0.3909236337  
O -1.6034482626 10.8900864923 2.7273436337  
O 2.3474675796 12.1787657510 5.0637636337  
H 10.5706359442 1.7585856441 3.7760932118  
H 15.1453721854 8.2751464398 6.1125132118  
H 7.2144968704 8.9787038424 1.4396732118  
H -0.4061990558 17.2538502822 0.8967467882  
H -3.7623381296 10.0337320839 3.2331667882  
H 4.1685371854 10.7372894865 5.5695867882  
H 0.8058869314 18.9795276955 0.0620481238  
H -5.8628616018 10.2205906337 2.3984681238  
H 5.0569746705 8.8247535234 4.7348881238  
H 11.7827219313 0.0329082308 4.6107918762  
H 16.0338096705 10.1876824029 6.9472118762  
H 5.1139733982 8.7918452926 2.2743718762  
H 11.8785739334 2.2078466598 6.0412491198  
H 14.1023317383 9.1832234573 1.3684091198  
H 6.9495993283 7.6213658093 3.7048291198  
H 0.9017389335 16.8045892665 5.6408508802  
H -4.0272356717 11.3910701170 0.9680108802  
H 3.1254967383 9.8292124690 3.3044308802  
H 2.7227276438 15.5477941157 1.4785545960  
H -3.8493134989 13.5964901756 3.8149745960  
H 1.1265858552 8.8805875613 6.1513945960  
H 13.6995626438 3.4646418106 3.1942854040  
H 12.1034208551 10.1318483650 5.5307054040  
H 7.1275215011 5.4159457507 0.8578654040  
H 3.6208262715 14.1501086787 5.8984364583  
H -3.0879317178 15.0731091207 1.2255964583  
H -0.5328945537 8.8016540531 3.5620164583  
H 14.5976612715 4.8623272476 5.7836635417  
H 10.4439404463 10.2107818732 1.1108235417  
H 7.8889032822 3.9393268056 3.4472435417  
H 6.0020006417 13.6414156050 5.6259921562  
H -3.8379777783 17.3896131531 0.9531521562  
H -2.1640228633 6.9938430945 3.2895721562  
H 16.9788356417 5.3710203213 6.0561078438  
H 8.8128121367 12.0185928318 1.3832678438  
H 7.1388572216 1.6228227732 3.7196878438  
H 5.4019061885 14.9021560976 4.5357875927  
H -4.6297638459 16.2395458656 6.8722075927  
H -0.7721423425 6.8831698894 2.1993675927  
H 16.3787411885 4.1102798287 0.1370524073  
H 10.2046926575 12.1292660369 2.4734724073  
H 6.3470711541 2.7728900607 4.8098924073  
H 5.0330447652 16.4292253707 1.3732271416  
H -5.7678139180 15.1565678659 3.7096471416  
H 0.7347691529 6.4390786160 6.0460671416  
H 16.0098797651 2.5832105556 3.2996128584  
H 11.7116041529 12.5733573103 5.6360328584  
H 5.2090210820 3.8558680604 0.9631928584  
H 5.5943636980 15.1452983970 2.4498561367  
H -4.9365600086 16.2846478083 4.7862761367  
H -0.6578036893 6.5949256474 0.1134361367  
H 16.5711986979 3.8671375293 2.2229838633  
H 10.3190313107 12.4175102789 4.5594038633  
H 6.0402749914 2.7277881180 6.8958238633  
H 7.2665750973 14.3995581614 0.8065735938  
H -5.1268357197 18.1056954784 3.1429935938  
H -2.1397393776 5.5196182128 5.4794135938  
H 18.2434100973 4.6128777649 3.8662664062  
H 8.8370956224 13.4928177135 6.2026864062  
H 5.8499992803 0.9067404479 1.5298464062  
H 7.4984098975 16.1202215375 1.1049986510  
H -6.7328913148 17.4461386167 3.4414186510  
H -0.7655185825 4.4585116984 5.7778386510  
H 18.4752448975 2.8922143888 3.5678413490  
H 10.2113164175 14.5539242279 5.9042613490  
H 4.2439436852 1.5662973096 1.2314213490  
H 6.2529906318 16.6748390863 6.0200686878  
H -6.5904945687 16.0902651200 1.3472286878  
H 0.3375039369 5.2597676463 3.6836486878  
H 17.2298256318 2.3375968400 5.6620313122  
H 11.3143389369 13.7526682800 0.9891913122  
H 4.3863404313 2.9221708063 3.3256113122  
H 7.5691535403 15.5578254961 5.6369212842  
H -6.2812138773 17.7886024293 0.9640812842  
H -1.2879396629 4.6784439273 3.3005012842  
H 18.5459885403 3.4546104302 6.0451787158  
H 9.6888953371 14.3339919990 1.3723387158  
H 4.6956211227 1.2238334970 3.7087587158  
H 2.3373221740 13.9798895770 0.7865486257  
H -2.2987656026 14.0466715173 3.1229686257  
H -0.0385565712 9.9983107584 5.4593886257  
H 13.3141571739 5.0325463493 3.8862913743  
H 10.9382784288 9.0141251679 6.2227113743  
H 8.6780693973 4.9657644090 1.5498713743  
H 4.8347848442 13.4136703933 0.8708730070  
H -3.0571367407 16.4926472265 3.2072930070  
H -1.7776481035 8.1185542328 5.5437130070  
H 15.8116198442 5.5987655330 3.8019669930  
H 9.1991868965 10.8938816935 6.1383869930  
H 7.9196982593 2.5197886998 1.4655469930  
H 3.6974151840 13.1537257328 2.8536765931  
H -2.2633332310 15.6376285375 5.1900965931  
H -1.4340819529 9.2335175822 0.5172565931  
H 14.6742501840 5.8587101935 1.8191634069  
H 9.5427530471 9.7789183441 4.1555834069  
H 8.7135017690 3.3748073888 6.4920034069  
H 3.2885398092 14.6035793658 3.4775326908  
H -3.3145056216 14.5586052595 5.8139526908  
H 0.0259658125 8.8626872273 1.1411126908  
H 14.2653748091 4.4088565605 1.1953073092  
H 11.0028008125 10.1497486990 3.5317273092  
H 7.6623293784 4.4538306668 5.8681473092  
C 11.3176347652 3.2783308318 0.8018486814  
C 13.4557348351 8.1621938014 3.1382686814  
C 8.1571353998 7.5719112930 5.4746886814  
C 0.3407997652 15.7341050945 3.8709913186  
C -2.8196996002 11.4405246333 6.2074113186  
C 2.4788998351 10.8502421249 1.5345713186  
C 10.9482296593 3.1270050125 2.1851216594  
C 13.7714893917 7.9179425052 4.5215416594  
C 8.2107859489 7.9674884086 6.8579616594  
C -0.0286053407 15.8854309138 2.4877183406  
C -2.7660490511 11.0449475177 4.8241383406  
C 2.7946543917 11.0944934211 0.1512983406  
C 10.8727740911 1.8301987956 2.7394868661  
C 14.9322843035 8.5009991747 5.0759068661  
C 7.1254466055 8.6812379560 0.4030668661  
C -0.1040609088 17.1822371307 1.9333531339  
C -3.8513883945 10.3311979703 4.2697731339  
C 3.9554493035 10.5114367516 6.6061931339  
C 11.1647449841 0.6703995878 2.0158007752  
C 15.7907144343 9.3337529892 4.3522207752  
C 5.9750455817 9.0082833493 6.6886407752  
C 0.1879099841 18.3420363385 2.6570392248  
C -5.0017894183 10.0041525770 4.9934592248  
C 4.8138794343 9.6786829371 0.3206192248  
C 11.5168873014 0.8355865986 0.6536806354  
C 15.4715871278 9.5561236763 2.9901006354  
C 5.9420305708 8.6207256514 5.3265206354  
C 0.5400523015 18.1768493277 4.0191593646  
C -5.0348044292 10.3917102749 6.3555793646  
C 4.4947521278 9.4563122500 1.6827393646  
C 11.5790921161 2.0915639776 0.0676315266  
C 14.3527764037 8.9820059366 2.4040515266  
C 6.9986364802 7.9388660121 4.7404715266  
C 0.6022571162 16.9208719487 4.6052084734  
C -3.9781985198 11.0735699142 6.9416284734  
C 3.3759414037 10.0304299897 2.2687884734  
C 10.6493785552 4.2768696778 3.0912907298  
C 12.9251029327 7.0841975245 5.4277107298  
C 9.3560235120 7.6513687241 0.7548707298  
C -0.3274564448 14.7355662485 1.5815492702  
C -1.6208114880 11.3610672022 3.9179692702  
C 1.9482679327 11.9282384018 6.2543892702  
C 4.4472246219 14.4481440048 0.7479661842  
C -3.7592370566 15.6397734228 3.0843861842  
C -0.6879875653 7.9369544250 5.4208061842  
C 15.4240596219 4.5642919215 3.9248738158  
C 10.2888474347 11.0754815013 6.2612938158  
C 7.2175979434 3.3726625035 1.5884538158  
C 5.5903259940 14.6689284318 5.5854285837  
C -4.5219926652 16.5193360367 0.9125885837  
C -1.0683333288 6.8366073842 3.2490085837  
C 16.5671609940 4.3435074945 6.0966714163  
C 9.9085016712 12.1758285421 1.4238314163  
C 6.4548423347 2.4930998896 3.7602514163  
C 6.6182386642 15.6526451397 6.1703419170  
C -5.8878726594 16.9176761679 1.4975019170  
C -0.7303660047 5.4545505450 3.8339219170  
C 17.5950736641 3.3597907866 5.5117580830  
C 10.2464689953 13.5578853813 0.8389180830  
C 5.0889623406 2.0947597584 3.1753380830  
C 5.4548322884 15.4167852041 1.3996188665  
C -5.1019087756 16.0280666593 3.7360388665  
C -0.3529235127 6.5800199892 6.0724588665  
C 16.4316672883 3.5956507222 3.2732211335  
C 10.6239114873 12.4324159371 5.6096411335  
C 5.8749262244 2.9843692670 0.9368011335  
C 6.8112658367 15.3885694752 0.6682836971  
C -5.7556900118 17.2168804351 3.0047036971  
C -1.0555758248 5.4194219422 5.3411236971  
C 17.7881008366 3.6238664511 4.0045563029  
C 9.9212591751 13.5930139841 6.3409763029  
C 5.2211449882 1.7955554912 1.6681363029  
C 3.0582998165 14.5103647142 1.4078895016  
C -3.1186593689 14.4058189026 3.7443095016  
C 0.0603595525 9.1086882357 6.0807295016  
C 14.0351348165 4.5020712121 3.2649504984  
C 11.0371945525 9.9037476906 5.6013704984  
C 7.8581756311 4.6066170237 0.9285304984  
N 4.3069690389 14.7780759332 6.3189044126  
N -3.9748386966 15.3533425607 1.6460644126  
N -0.3321303422 7.8934533588 3.9824844126  
N 15.2838040388 4.2343599931 5.3631955874  
N 10.6447046578 11.1189825675 0.6903555874  
N 7.0019963034 3.6590933656 3.0267755874  
N 3.0088672833 13.9083582665 2.7847031498  
N -2.5725902253 14.6640122970 5.1211231498  
N -0.4362770579 9.4525012891 0.4482831498  
N 13.9857022833 5.1040776598 1.8881368502  
N 10.5405579421 9.5599346372 4.2245568502  
N 8.4042447747 4.3484236293 6.5609768502  

