&CONTROL
   calculation      = 'scf'
   outdir           = './tmp'
   prefix           = 'b_MOF_CO2_bound'
   disk_io          = 'none'
   pseudo_dir       = '/home/seyoung/pseudo'
/
&SYSTEM
   ecutwfc          = 60
   ecutrho          = 480
   occupations      = 'fixed'
   nspin            = 1
   input_dft        = 'scan'
   ntyp             = 5
   nat              = 219
   ibrav            = 0
/
&ELECTRONS
   electron_maxstep = 200
   conv_thr         = 1e-07
   mixing_beta      = 0.3
/
&IONS
/
&CELL
/
&FCP
/
&RISM
/
ATOMIC_SPECIES
Mg 24.305 Mg.pbe-n-kjpaw_psl.0.3.0.UPF
O 15.999 O.pbe-n-kjpaw_psl.0.1.UPF
H 1.008 H.pbe-rrkjus_psl.1.0.0.UPF
C 12.011 C.pbe-n-kjpaw_psl.1.0.0.UPF
N 14.007 N.pbe-n-radius_5.UPF

K_POINTS automatic
1 1 2  0 0 0

CELL_PARAMETERS angstrom
21.95367003689136 0.00000000000000 0.00000000000000
-10.97683501844568 19.01242709369884 0.00000000000000
0.00000000000000 0.00000000000000 7.00925800102849

ATOMIC_POSITIONS angstrom
Mg 10.0752506798 5.4433364645 5.8847447639  
Mg 12.1116653737 6.1339716287 1.1277396835  
Mg 10.5934286873 7.4767624973 3.5062385093  
Mg -0.8009359309 13.5764575372 5.8358284708  
Mg -0.4070216783 11.5667588882 1.1669934160  
Mg 1.1332557290 12.9184379539 3.5016304053  
O 11.3488825934 4.4668767323 0.1618193701  
O 12.3931253780 7.6410558202 2.5089880348  
O 9.1255762640 6.9687276397 4.8605010421  
O 0.3781206508 14.5786173798 4.4734981337  
O -1.8651613550 12.1128693488 6.8190115199  
O 1.4018806554 11.3901023165 2.1434360133  
O 10.7840686671 5.5122838456 2.6416487028  
O 11.7839673409 6.6162303455 4.9980859804  
O 10.3288309545 6.9674457690 0.3196165454  
O -0.2034389804 13.5448080772 1.9957770185  
O -0.6742199264 12.1086397051 4.3344250408  
O 0.7937522173 12.4144199279 6.6725032639  
O 10.1582964751 4.1102016800 4.2709961732  
O 13.3283507619 6.7892749745 6.6124592248  
O 9.3980365922 8.1653694084 1.9706102841  
O -0.8154030254 14.9558470764 0.3651327310  
O -1.6022090610 10.8763570794 2.7102638643  
O 2.3239591097 12.2524007453 5.0458707375  
H 10.5323209147 1.7970722777 3.7893467408  
H 15.1429070067 8.2400244806 6.1192552683  
H 7.2635819357 9.0834579577 1.4601828709  
H -0.5303844374 17.2605785987 0.8748835224  
H -3.7513113735 10.0023540658 3.2189846724  
H 4.1876707631 10.8850067210 5.5541879004  
H 0.4860892148 18.9887741111 0.0091492862  
H -5.7857011932 10.0887314162 2.3754308283  
H 5.2435605683 9.2248672598 4.6750589770  
H 11.5736353626 0.0605660737 4.6074826680  
H 16.0804067542 10.0674658570 6.9578491058  
H 5.2382560859 9.0344387448 2.2810725154  
H 11.5745783947 2.2126379257 5.9872393465  
H 14.1790929396 9.0560182856 1.3389269263  
H 7.1176852765 8.0010989789 3.6520236507  
H 0.7183555227 16.8373463537 5.6373225157  
H -3.9902872068 11.2902846860 0.9744287254  
H 3.2214988846 10.0084151207 3.3091117259  
H 2.6879627013 15.6308943941 1.4408332906  
H -3.9226769348 13.4982357692 3.7334681542  
H 1.1533702717 8.8753909521 6.1096085641  
H 13.6388258511 3.4027490479 3.2311091783  
H 12.1960894498 10.1791498615 5.5929647278  
H 3.6625379751 13.9703699510 5.9458934506  
H -2.9482396665 15.2114644124 1.2437535780  
H -0.7731015687 8.8502636365 3.5985787561  
H 14.6295593833 5.0642690506 5.7164203670  
H 10.2452918918 10.1929246721 1.0739847580  
H 6.0611916172 13.4827129545 5.8380076333  
H -3.7358947388 17.5371608337 1.1768947684  
H -2.3655352119 6.9864746758 3.4840861682  
H 17.0294381107 5.5524624127 5.8164091974  
H 8.6322338460 12.0374668454 1.1665487542  
H 5.4644000651 14.5340196257 4.5410968289  
H -4.2907892152 16.5257036892 6.8390415551  
H -1.1532314188 7.0037292050 2.1908479260  
H 16.4373961593 4.4995192436 0.1052196028  
H 9.8242773463 12.0329086322 2.4787478999  
H 4.9409396206 16.5862735725 1.1171036374  
H -5.9060702956 14.9028809056 3.3040058698  
H 0.8759061765 6.4555063184 5.7929657401  
H 15.8972751098 2.4424140229 3.5348896610  
H 11.9084249145 12.6031134692 5.9253765500  
H 5.5161550661 15.4940500296 2.3839515320  
H -5.3318034960 15.9212543507 4.6322418735  
H -0.3717236462 6.4855613479 0.0372648721  
H 16.4651982348 3.5314419803 2.2624551797  
H 10.6869385516 12.5670819582 4.6462498875  
H 7.2670250402 14.5932637774 0.8902564293  
H -5.4057313668 17.9265202652 3.2077871321  
H -1.9949556145 5.3949251152 5.5357263787  
H 18.2228453162 4.4375930695 3.7443568557  
H 9.0244245681 13.6395274374 6.1270386050  
H 7.4182044623 16.3469969645 0.9441540310  
H -6.9874886330 17.1562964762 3.1596979896  
H -0.5370674711 4.4103685724 5.6037072423  
H 18.3764785195 2.6834542744 3.6945710598  
H 10.4740011110 14.6387408012 6.0902700206  
H 6.2240756771 16.5470667507 5.7707262169  
H -6.4582668501 16.1359703464 0.9499207281  
H 0.2393930008 5.3651043734 3.4285886123  
H 17.1860766986 2.4876396447 5.8796945592  
H 11.2165091364 13.6905730261 1.2693400421  
H 7.5789849012 15.4261310525 5.5867495233  
H -6.1640987733 17.8778873865 0.8601877951  
H -1.3943842194 4.7182556862 3.2280172385  
H 18.5463570733 3.6024223571 6.0594701078  
H 9.5715017330 14.3168493598 1.4382423798  
H 2.3276079818 14.0453161691 0.7786765693  
H -2.3754038232 14.0068087094 3.0801846264  
H -0.0410339403 9.9746297893 5.4421019712  
H 13.2911131817 4.9985288546 3.8744108216  
H 10.9941334839 9.0751312090 6.2402957002  
H 4.8664609642 13.5265462586 1.0184352919  
H -3.2660977446 16.4550321609 3.3456382742  
H -1.7522351409 8.0231268845 5.6789397527  
H 15.8265749929 5.5022127537 3.6265435675  
H 9.2851780737 11.0247492265 5.9932070635  
H 3.6724115174 13.2902119699 2.8899916981  
H -2.4451937167 15.5557088955 5.1904380308  
H -1.3772310833 9.1996313765 0.5332311879  
H 14.6457606691 5.7086196897 1.7461553820  
H 9.6894347596 9.8852891681 4.1197823963  
H 3.2029203776 14.7348838475 3.4810002203  
H -3.4343411911 14.3972397976 5.7757985778  
H 0.1000403593 8.8605752053 1.1341934345  
H 14.1433419654 4.2665192057 1.1777177836  
H 11.1848114824 10.1844579477 3.5434444004  
C 11.1664673426 3.2984045107 0.7777765519  
C 13.4885764826 8.0978787745 3.1278785127  
C 8.2226934997 7.7512345547 5.4702677904  
C 0.2203276166 15.7560309953 3.8544718102  
C -2.8109693121 11.3932680842 6.1989080834  
C 2.5117506386 10.9580202259 1.5248613701  
C 10.8456199641 3.1576439179 2.1739597576  
C 13.7845687362 7.8690990223 4.5175853884  
C 8.2634312895 8.1031969456 6.8639805962  
C -0.1341138891 15.9006937605 2.4668288605  
C -2.7599361956 11.0127887855 4.8117427561  
C 2.8112357218 11.1974387129 0.1381986902  
C 10.7617119080 1.8614984490 2.7335699020  
C 14.9457156327 8.4462520071 5.0749812961  
C 7.1941752650 8.8400678977 0.4078444698  
C -0.2394515793 17.1965678096 1.9151861722  
C -3.8368374926 10.2860229435 4.2597984134  
C 3.9964482248 10.6635130743 6.5955288531  
C 10.9812980327 0.6923182772 1.9994050057  
C 15.8222346328 9.2555955208 4.3458450327  
C 6.0756835312 9.2380258435 6.6783096087  
C 0.0180261098 18.3635666757 2.6422833532  
C -4.9760017433 9.9324065190 4.9885667199  
C 4.8969446320 9.8779077612 0.3122049065  
C 11.2582510293 0.8501597271 0.6165571213  
C 15.5288348547 9.4494133803 2.9733977948  
C 6.0891579156 8.9445857766 5.2916226879  
C 0.3551682971 18.2018656569 4.0098299331  
C -5.0017358605 10.2999602603 6.3569820592  
C 4.5907441724 9.6618016468 1.6796806955  
C 11.3322284948 2.1021550800 0.0289390380  
C 14.4115353270 8.8788201687 2.3834106719  
C 7.1347405941 8.2483066736 4.7074569203  
C 0.4352372566 16.9474250275 4.5961514541  
C -3.9512327081 10.9914701135 6.9418880180  
C 3.4522377206 10.1968517432 2.2662152828  
C 10.5939186543 4.3195508666 3.0712094671  
C 12.9187860222 7.0510489188 5.4242860426  
C 9.3808379957 7.7195786428 0.7677996870  
C -0.3948119831 14.7433673701 1.5581020341  
C -1.6239370334 11.3489778584 3.9012854359  
C 1.9330556721 11.9905486803 6.2376571848  
C 4.4386739758 14.5206004636 0.7640734373  
C -3.8737529691 15.5692527094 3.0545594017  
C -0.6760044791 7.9043876089 5.4263938776  
C 15.3983597700 4.5095254537 3.8864268275  
C 10.3578756365 11.1444371027 6.2580486957  
C 5.6276211467 14.4786085455 5.6213378573  
C -4.3657987516 16.6636223468 0.9129479984  
C -1.2834225517 6.8854212541 3.2704425021  
C 16.5961940714 4.5560617778 6.0336095269  
C 9.7098107734 12.1511379767 1.3971930702  
C 6.6115132409 15.5688909014 6.0778344228  
C -5.8217260452 16.9456600725 1.3237387983  
C -0.8074311125 5.4959997435 3.7262333202  
C 17.5765419732 3.4643142117 5.5719737559  
C 10.1774790331 13.5467989270 0.9509341593  
C 5.3971119351 15.6056015593 1.3001937764  
C -5.3198054399 15.7981710364 3.5425965861  
C -0.2044750986 6.5360586120 5.9645833046  
C 16.3526241422 3.4225759829 3.3471866506  
C 10.8321553407 12.5159408952 5.7313813086  
C 6.7729976987 15.5306506306 0.6040069795  
C -5.9411109881 17.0352700733 2.8616439346  
C -0.9330485353 5.3714965045 5.2603652560  
C 17.7318718834 3.4999133985 4.0357945851  
C 10.0805813189 13.6730537037 6.4237726924  
C 3.0348167357 14.5953201930 1.3992376422  
C -3.2149956320 14.3296867780 3.6945452970  
C 0.0823166877 9.0880492743 6.0633910533  
C 13.9921129921 4.4366128561 3.2578202878  
C 11.1248807277 9.9645492888 5.6247914437  
N 4.3218807110 14.6623574537 6.3007188332  
N -3.8861017164 15.4300603237 1.5778384119  
N -0.4923245593 7.9368143863 3.9542391631  
N 15.2884577130 4.3726970368 5.3596708450  
N 10.5232399380 11.1093907522 0.7240015057  
N 2.9637984160 14.0222636903 2.7895679487  
N -2.6978626442 14.5691843807 5.0891314323  
N -0.3849076701 9.4347973410 0.4426861276  
N 13.9228695498 4.9930163247 1.8606753664  
N 10.6734373741 9.6244600274 4.2277772503  
O 8.3722068173 4.6411297280 6.7555555496  
O 6.3263318626 4.8858752671 5.7725323249  
H 6.7009365542 5.6638145875 3.0384451180  
H 7.0417324150 3.9358493664 4.7325362582  
H 8.5023336039 3.4891052520 4.0371290882  
H 7.8348049902 1.1707017083 3.8382788453  
H 7.8196012141 1.7880796045 5.5052406969  
H 5.5512129078 5.4641873112 0.9367052433  
H 4.9148698222 3.3071414878 1.7796213010  
H 4.8862123169 3.8914424390 3.4472521218  
H 4.0610432323 1.5368576981 3.3477480243  
H 5.5341086719 1.0305614627 2.5291444847  
H 5.3591782552 2.1356135519 5.3921854886  
H 5.7129168566 0.4647455472 4.9519899243  
H 8.2047529737 5.1963416960 2.2384632975  
H 7.3702613935 2.8657605323 1.9514658187  
C 6.8671027989 3.5209403088 2.6731716991  
C 7.3184996128 1.8385591605 4.5356133823  
C 5.8244063282 1.5034789761 4.6277451896  
C 5.3666346748 3.1782741004 2.7657542905  
C 5.1329936661 1.7368734294 3.2666340956  
C 7.1334666407 5.0026998001 2.2823594536  
C 7.1149695613 4.9287434448 6.7796353132  
N 7.4924302239 3.2532612484 4.0300372688  
N 6.5508774636 5.3192810151 0.9812678731  

