
     Program PWSCF v.7.5 starts on 16Sep2026 at 17:51:49 

     This program is part of the open-source Quantum ESPRESSO suite
     for quantum simulation of materials; please cite
         "P. Giannozzi et al., J. Phys.:Condens. Matter 21 395502 (2009);
         "P. Giannozzi et al., J. Phys.:Condens. Matter 29 465901 (2017);
         "P. Giannozzi et al., J. Chem. Phys. 152 154105 (2020);
          URL http://www.quantum-espresso.org", 
     in publications or presentations arising from this work. More details at
     http://www.quantum-espresso.org/quote

     Parallel version (MPI & OpenMP), running on      16 processor cores
     Number of MPI processes:                 8
     Threads/MPI process:                     2

     MPI processes distributed on     1 nodes
     25013 MiB available memory on the printing compute node when the environment starts

     Reading input from espresso.pwi
Warning: card &CELL ignored
Warning: card &FCP ignored
Warning: card &RISM ignored

     Current dimensions of program PWSCF are:
     Max number of different atomic species (ntypx) = 10
     Max number of k-points (npk) =  40000
     Max angular momentum in pseudopotentials (lmaxx) =  4
     file C.pbe-n-kjpaw_psl.1.0.0.UPF: wavefunction(s)  2S 2P renormalized
     file O.pbe-n-kjpaw_psl.0.1.UPF: wavefunction(s)  2P renormalized

     IMPORTANT: XC functional enforced from input :
     Exchange-correlation= PBE
                           (   1   4   3   4   0   0   0)
     Any further DFT definition will be discarded
     Please, verify this is what you really want

     Message from routine setup:
     using ibrav=0 with symmetry is DISCOURAGED, use correct ibrav instead

     R & G space division:  proc/nbgrp/npool/nimage =       8
     Subspace diagonalization in iterative solution of the eigenvalue problem:
     a serial algorithm will be used


     Parallelization info
     --------------------
     sticks:   dense  smooth     PW     G-vecs:    dense   smooth      PW
     Min        3833    1916    479               505534   178704   22365
     Max        3835    1917    480               505537   178707   22368
     Sum       30669   15329   3833              4044289  1429635  178925

     Using Slab Decomposition



     bravais-lattice index     =            0
     lattice parameter (alat)  =      28.3459  a.u.
     unit-cell volume          =   22775.6289 (a.u.)^3
     number of atoms/cell      =            3
     number of atomic types    =            2
     number of electrons       =        16.00
     number of Kohn-Sham states=            8
     kinetic-energy cutoff     =      60.0000  Ry
     charge density cutoff     =     480.0000  Ry
     scf convergence threshold =      1.0E-07
     mixing beta               =       0.3000
     number of iterations used =            8  plain     mixing
     Exchange-correlation= PBE
                           (   1   4   3   4   0   0   0)

     celldm(1)=  28.345892  celldm(2)=   0.000000  celldm(3)=   0.000000
     celldm(4)=   0.000000  celldm(5)=   0.000000  celldm(6)=   0.000000

     crystal axes: (cart. coord. in units of alat)
               a(1) = (   1.000000   0.000000   0.000000 )  
               a(2) = (   0.000000   1.000000   0.000000 )  
               a(3) = (   0.000000   0.000000   1.000000 )  

     reciprocal axes: (cart. coord. in units 2 pi/alat)
               b(1) = (  1.000000  0.000000  0.000000 )  
               b(2) = (  0.000000  1.000000  0.000000 )  
               b(3) = (  0.000000  0.000000  1.000000 )  


     PseudoPot. # 1 for C  read from file:
     /home/seyoung/pseudo/C.pbe-n-kjpaw_psl.1.0.0.UPF
     MD5 check sum: 5d2aebdfa2cae82b50a7e79e9516da0f
     Pseudo is Projector augmented-wave + core cor, Zval =  4.0
     Generated using "atomic" code by A. Dal Corso  v.5.1
     Shape of augmentation charge: PSQ
     Using radial grid of 1073 points,  4 beta functions with: 
                l(1) =   0
                l(2) =   0
                l(3) =   1
                l(4) =   1
     Q(r) pseudized with 0 coefficients 


     PseudoPot. # 2 for O  read from file:
     /home/seyoung/pseudo/O.pbe-n-kjpaw_psl.0.1.UPF
     MD5 check sum: 0234752ac141de4415c5fc33072bef88
     Pseudo is Projector augmented-wave + core cor, Zval =  6.0
     Generated using "atomic" code by A. Dal Corso  v.5.0.99 svn rev. 10869
     Shape of augmentation charge: BESSEL
     Using radial grid of 1095 points,  4 beta functions with: 
                l(1) =   0
                l(2) =   0
                l(3) =   1
                l(4) =   1
     Q(r) pseudized with 0 coefficients 


     atomic species   valence    mass     pseudopotential
     C                 4.00    12.01100     C ( 1.00)
     O                 6.00    15.99900     O ( 1.00)

     16 Sym. Ops., with inversion, found



   Cartesian axes

     site n.     atom                  positions (alat units)
         1        C      tau(   1) = (   0.5000000   0.5000000   0.5000000  )
         2        O      tau(   2) = (   0.5782060   0.5000000   0.5000000  )
         3        O      tau(   3) = (   0.4217940   0.5000000   0.5000000  )

     number of k points=     1
                       cart. coord. in units 2pi/alat
        k(    1) = (   0.0000000   0.0000000   0.0000000), wk =   2.0000000

     Dense  grid:  4044289 G-vectors     FFT dimensions: ( 200, 200, 200)

     Smooth grid:  1429635 G-vectors     FFT dimensions: ( 144, 144, 144)

     Estimated max dynamical RAM per process >     650.84 MB

     Estimated total dynamical RAM >       5.08 GB

     Initial potential from superposition of free atoms

     starting charge      16.0000, renormalised to      16.0000

     negative rho (up, down):  1.300E-03 0.000E+00
     Starting wfcs are   12 randomized atomic wfcs
     Checking if some PAW data can be deallocated... 

     total cpu time spent up to now is        6.1 secs

     per-process dynamical memory:   226.2 Mb

     Self-consistent Calculation

     iteration #  1     ecut=    60.00 Ry     beta= 0.30
     Davidson diagonalization with overlap
     ethr =  1.00E-02,  avg # of iterations =  2.0

     negative rho (up, down):  1.665E-03 0.000E+00

     total cpu time spent up to now is       10.9 secs

     total energy              =    -101.69795103 Ry
     estimated scf accuracy    <       0.47276788 Ry

     iteration #  2     ecut=    60.00 Ry     beta= 0.30
     Davidson diagonalization with overlap
     ethr =  2.95E-03,  avg # of iterations =  2.0

     negative rho (up, down):  1.833E-03 0.000E+00

     total cpu time spent up to now is       15.6 secs

     total energy              =    -101.77692975 Ry
     estimated scf accuracy    <       0.04456213 Ry

     iteration #  3     ecut=    60.00 Ry     beta= 0.30
     Davidson diagonalization with overlap
     ethr =  2.79E-04,  avg # of iterations =  2.0

     negative rho (up, down):  2.220E-03 0.000E+00

     total cpu time spent up to now is       20.3 secs

     total energy              =    -101.77338069 Ry
     estimated scf accuracy    <       0.02082713 Ry

     iteration #  4     ecut=    60.00 Ry     beta= 0.30
     Davidson diagonalization with overlap
     ethr =  1.30E-04,  avg # of iterations =  2.0

     negative rho (up, down):  2.174E-03 0.000E+00

     total cpu time spent up to now is       25.0 secs

     total energy              =    -101.77741906 Ry
     estimated scf accuracy    <       0.00307342 Ry

     iteration #  5     ecut=    60.00 Ry     beta= 0.30
     Davidson diagonalization with overlap
     ethr =  1.92E-05,  avg # of iterations =  1.0

     negative rho (up, down):  2.186E-03 0.000E+00

     total cpu time spent up to now is       29.6 secs

     total energy              =    -101.77611257 Ry
     estimated scf accuracy    <       0.00182992 Ry

     iteration #  6     ecut=    60.00 Ry     beta= 0.30
     Davidson diagonalization with overlap
     ethr =  1.14E-05,  avg # of iterations =  5.0

     negative rho (up, down):  2.189E-03 0.000E+00

     total cpu time spent up to now is       34.7 secs

     total energy              =    -101.77619082 Ry
     estimated scf accuracy    <       0.00474154 Ry

     iteration #  7     ecut=    60.00 Ry     beta= 0.30
     Davidson diagonalization with overlap
     ethr =  1.14E-05,  avg # of iterations =  3.0

     negative rho (up, down):  2.201E-03 0.000E+00

     total cpu time spent up to now is       39.6 secs

     total energy              =    -101.77685449 Ry
     estimated scf accuracy    <       0.00017816 Ry

     iteration #  8     ecut=    60.00 Ry     beta= 0.30
     Davidson diagonalization with overlap
     ethr =  1.11E-06,  avg # of iterations =  4.0

     negative rho (up, down):  2.215E-03 0.000E+00

     total cpu time spent up to now is       44.5 secs

     total energy              =    -101.77693594 Ry
     estimated scf accuracy    <       0.00000383 Ry

     iteration #  9     ecut=    60.00 Ry     beta= 0.30
     Davidson diagonalization with overlap
     ethr =  2.40E-08,  avg # of iterations =  5.0

     negative rho (up, down):  2.223E-03 0.000E+00

     total cpu time spent up to now is       49.7 secs

     total energy              =    -101.77692505 Ry
     estimated scf accuracy    <       0.00007968 Ry

     iteration # 10     ecut=    60.00 Ry     beta= 0.30
     Davidson diagonalization with overlap
     ethr =  2.40E-08,  avg # of iterations =  5.0

     negative rho (up, down):  2.229E-03 0.000E+00

     total cpu time spent up to now is       55.0 secs

     total energy              =    -101.77692872 Ry
     estimated scf accuracy    <       0.00000649 Ry

     iteration # 11     ecut=    60.00 Ry     beta= 0.30
     Davidson diagonalization with overlap
     ethr =  2.40E-08,  avg # of iterations =  4.0

     negative rho (up, down):  2.235E-03 0.000E+00

     total cpu time spent up to now is       60.0 secs

     total energy              =    -101.77693213 Ry
     estimated scf accuracy    <       0.00000163 Ry

     iteration # 12     ecut=    60.00 Ry     beta= 0.30
     Davidson diagonalization with overlap
     ethr =  1.02E-08,  avg # of iterations =  2.0

     negative rho (up, down):  2.239E-03 0.000E+00

     total cpu time spent up to now is       64.7 secs

     total energy              =    -101.77692999 Ry
     estimated scf accuracy    <       0.00000375 Ry

     iteration # 13     ecut=    60.00 Ry     beta= 0.30
     Davidson diagonalization with overlap
     ethr =  1.02E-08,  avg # of iterations =  3.0

     negative rho (up, down):  2.241E-03 0.000E+00

     total cpu time spent up to now is       69.6 secs

     total energy              =    -101.77693114 Ry
     estimated scf accuracy    <       0.00000039 Ry

     iteration # 14     ecut=    60.00 Ry     beta= 0.30
     Davidson diagonalization with overlap
     ethr =  2.42E-09,  avg # of iterations =  5.0

     negative rho (up, down):  2.244E-03 0.000E+00

     total cpu time spent up to now is       74.9 secs

     total energy              =    -101.77693245 Ry
     estimated scf accuracy    <       0.00000434 Ry

     iteration # 15     ecut=    60.00 Ry     beta= 0.30
     Davidson diagonalization with overlap
     ethr =  2.42E-09,  avg # of iterations =  1.0

     negative rho (up, down):  2.245E-03 0.000E+00

     total cpu time spent up to now is       79.5 secs

     total energy              =    -101.77693074 Ry
     estimated scf accuracy    <       0.00000478 Ry

     iteration # 16     ecut=    60.00 Ry     beta= 0.30
     Davidson diagonalization with overlap
     ethr =  2.42E-09,  avg # of iterations =  5.0

     negative rho (up, down):  2.246E-03 0.000E+00

     total cpu time spent up to now is       84.6 secs

     total energy              =    -101.77693112 Ry
     estimated scf accuracy    <       0.00000038 Ry

     iteration # 17     ecut=    60.00 Ry     beta= 0.30
     Davidson diagonalization with overlap
     ethr =  2.36E-09,  avg # of iterations =  1.0

     negative rho (up, down):  2.247E-03 0.000E+00

     total cpu time spent up to now is       89.2 secs

     total energy              =    -101.77693116 Ry
     estimated scf accuracy    <       0.00000013 Ry

     iteration # 18     ecut=    60.00 Ry     beta= 0.30
     Davidson diagonalization with overlap
     ethr =  8.36E-10,  avg # of iterations =  1.0

     negative rho (up, down):  2.247E-03 0.000E+00

     total cpu time spent up to now is       93.8 secs

     total energy              =    -101.77693119 Ry
     estimated scf accuracy    <       0.00000017 Ry

     iteration # 19     ecut=    60.00 Ry     beta= 0.30
     Davidson diagonalization with overlap
     ethr =  8.36E-10,  avg # of iterations =  1.0

     negative rho (up, down):  2.247E-03 0.000E+00

     total cpu time spent up to now is       98.4 secs

     total energy              =    -101.77693108 Ry
     estimated scf accuracy    <       0.00000024 Ry

     iteration # 20     ecut=    60.00 Ry     beta= 0.30
     Davidson diagonalization with overlap
     ethr =  8.36E-10,  avg # of iterations =  3.0

     negative rho (up, down):  2.248E-03 0.000E+00

     total cpu time spent up to now is      103.1 secs

     End of self-consistent calculation

          k = 0.0000 0.0000 0.0000 (178925 PWs)   bands (ev):

   -29.0519 -28.0512 -13.7484 -12.5789 -12.5759 -12.5759  -8.9901  -8.9901

     highest occupied level (ev):    -8.9901

!    total energy              =    -101.77693110 Ry
     total all-electron energy =      -377.234814 Ry
     estimated scf accuracy    <          9.8E-09 Ry

     The total energy is the sum of the following terms:
     one-electron contribution =    -187.46813940 Ry
     hartree contribution      =      96.06859498 Ry
     xc contribution           =     -19.25236646 Ry
     ewald contribution        =      34.09898017 Ry
     one-center paw contrib.   =     -25.22400038 Ry

     convergence has been achieved in  20 iterations
     Message from routine punch:
     Nothing written, as per user request (disk_io='none')

     init_run     :      6.05s CPU      5.92s WALL (       1 calls)
     electrons    :    117.72s CPU     97.06s WALL (       1 calls)

     Called by init_run:
     wfcinit      :      0.46s CPU      0.24s WALL (       1 calls)
     potinit      :      1.80s CPU      1.63s WALL (       1 calls)
     hinit0       :      0.67s CPU      0.67s WALL (       1 calls)

     Called by electrons:
     c_bands      :     25.82s CPU     13.12s WALL (      20 calls)
     sum_band     :     41.37s CPU     35.64s WALL (      20 calls)
     v_of_rho     :     22.14s CPU     18.72s WALL (      21 calls)
     newd         :     21.74s CPU     24.93s WALL (      21 calls)
     PAW_pot      :      1.12s CPU      0.65s WALL (      21 calls)
     mix_rho      :      4.83s CPU      4.14s WALL (      20 calls)

     Called by c_bands:
     init_us_2    :      0.81s CPU      0.41s WALL (      41 calls)
     cegterg      :     24.91s CPU     12.66s WALL (      20 calls)

     Called by *egterg:
     cdiaghg      :      0.03s CPU      0.01s WALL (      77 calls)
     h_psi        :     21.58s CPU     11.00s WALL (      78 calls)
     s_psi        :      0.56s CPU      0.28s WALL (      78 calls)
     g_psi        :      0.14s CPU      0.08s WALL (      57 calls)

     Called by h_psi:
     h_psi:calbec :      0.68s CPU      0.34s WALL (      78 calls)
     vloc_psi     :     20.24s CPU     10.33s WALL (      78 calls)
                                        0.00s GPU  (      78 calls)
     add_vuspsi   :      0.44s CPU      0.22s WALL (      78 calls)

     General routines
     calbec       :      0.84s CPU      0.42s WALL (      98 calls)
     fft          :     20.43s CPU     16.63s WALL (     271 calls)
     ffts         :      1.38s CPU      1.07s WALL (      41 calls)
     fftw         :     21.54s CPU     10.99s WALL (    1144 calls)
     interpolate  :      2.57s CPU      1.99s WALL (      21 calls)

     Parallel routines

     PWSCF        :   2m 3.93s CPU   1m43.17s WALL


   This run was terminated on:  17:53:32  16Sep2026            

=------------------------------------------------------------------------------=
   JOB DONE.
=------------------------------------------------------------------------------=
Note: The following floating-point exceptions are signalling: IEEE_INVALID_FLAG
Note: The following floating-point exceptions are signalling: IEEE_INVALID_FLAG
Note: The following floating-point exceptions are signalling: IEEE_INVALID_FLAG
Note: The following floating-point exceptions are signalling: IEEE_INVALID_FLAG
Note: The following floating-point exceptions are signalling: IEEE_INVALID_FLAG
Note: The following floating-point exceptions are signalling: IEEE_INVALID_FLAG
Note: The following floating-point exceptions are signalling: IEEE_INVALID_FLAG
Note: The following floating-point exceptions are signalling: IEEE_INVALID_FLAG
