&CONTROL
   calculation      = 'relax'
   nstep            = 300
   tprnfor          = .true.
   outdir           = './tmp'
   prefix           = 'c_MOF_CO2_free'
   disk_io          = 'low'
   pseudo_dir       = '/home/seyoung/pseudo'
/
&SYSTEM
   ecutwfc          = 60
   ecutrho          = 480
   occupations      = 'fixed'
   nspin            = 1
   input_dft        = 'vdw-df2'
   ntyp             = 5
   nat              = 219
   ibrav            = 0
/
&ELECTRONS
   electron_maxstep = 200
   conv_thr         = 1e-07
   mixing_beta      = 0.3
/
&IONS
   ion_dynamics     = 'bfgs'
/
&CELL
/
&FCP
/
&RISM
/
ATOMIC_SPECIES
Mg 24.305 Mg.pbe-n-kjpaw_psl.0.3.0.UPF
O 15.999 O.pbe-n-kjpaw_psl.0.1.UPF
H 1.008 H.pbe-rrkjus_psl.1.0.0.UPF
C 12.011 C.pbe-n-kjpaw_psl.1.0.0.UPF
N 14.007 N.pbe-n-radius_5.UPF

K_POINTS automatic
1 1 2  0 0 0

CELL_PARAMETERS angstrom
21.95367000000000 0.00000000000000 0.00000000000000
-10.97683499999999 19.01243592630031 0.00000000000000
0.00000000000000 0.00000000000000 7.00926000000000

ATOMIC_POSITIONS angstrom
Mg 10.2319469769 5.4299517006 5.8305127458  
Mg 12.1352203976 6.1461501619 1.1576727458  
Mg 10.5633376256 7.4363340639 3.4940927458  
Mg -0.7448880231 13.5824842257 5.8515872542  
Mg -0.4134973744 11.5761018624 1.1787472542  
Mg 1.1583853976 12.8662857644 3.5151672542  
O 11.4377523016 4.4635495824 0.1829416860  
O 12.3692465198 7.6736092642 2.5193616860  
O 9.1235061786 6.8752770797 4.8557816860  
O 0.4609173017 14.5488863439 4.4898983140  
O -1.8533288214 12.1371588466 6.8263183140  
O 1.3924115198 11.3388266621 2.1534783140  
O 10.8184392710 5.4864186353 2.6555983362  
O 11.7930724506 6.6258339203 4.9920183362  
O 10.3189932785 6.9001833707 0.3191783362  
O -0.1583957290 13.5260172910 2.0172416638  
O -0.6578417215 12.1122525556 4.3536616638  
O 0.8162374506 12.3866020060 6.6900816638  
O 10.2354595641 4.0564933292 4.2812560080  
O 13.3229139446 6.8359213373 6.6176760080  
O 9.3721314914 8.1200212598 1.9448360080  
O -0.7413754359 14.9559425971 0.3915839920  
O -1.6047035086 10.8924146665 2.7280039920  
O 2.3460789446 12.1765145890 5.0644239920  
H 10.5665209077 1.7586503232 3.7775004918  
H 15.1473736899 8.2715503741 6.1139204918  
H 7.2166104024 8.9822352290 1.4410804918  
H -0.4103140923 17.2537856031 0.8953395082  
H -3.7602245976 10.0302006973 3.2317595082  
H 4.1705386899 10.7408855522 5.5681795082  
H 0.8055899207 18.9791641634 0.0617515806  
H -5.8623982684 10.2205151809 2.3981715806  
H 5.0568083478 8.8251925083 4.7345915806  
H 11.7824249206 0.0332717629 4.6110884194  
H 16.0336433478 10.1872434180 6.9475084194  
H 5.1144367316 8.7919207454 2.2746684194  
H 11.8856071696 2.2052524431 6.0360242490  
H 14.1010617777 9.1906115268 1.3631842490  
H 6.9438360527 7.6165719564 3.6996042490  
H 0.9087721697 16.8071834832 5.6460757510  
H -4.0329989473 11.3958639699 0.9732357510  
H 3.1242267777 9.8218243995 3.3096557510  
H 2.7233527635 15.5483701005 1.4788136748  
H -3.8501248762 13.5967435527 3.8152336748  
H 1.1267721128 8.8797581994 6.1516536748  
H 13.7001877635 3.4640658258 3.1940263252  
H 12.1036071127 10.1326777269 5.5304463252  
H 7.1267101238 5.4156923736 0.8576063252  
H 3.6238923069 14.1524770548 5.9006053458  
H -3.0915158094 15.0745801972 1.2277653458  
H -0.5323764975 8.7978146005 3.5641853458  
H 14.6007273069 4.8599588715 5.7814946542  
H 10.4444585025 10.2146213258 1.1086546542  
H 7.8853191906 3.9378557291 3.4450746542  
H 6.0025724514 13.6429437720 5.6219171682  
H -3.8395871146 17.3893442713 0.9490771682  
H -2.1629853367 6.9925838093 3.2854971682  
H 16.9794074514 5.3694921543 6.0601828318  
H 8.8138496633 12.0198521170 1.3873428318  
H 7.1372478853 1.6230916550 3.7237628318  
H 5.4032372604 14.9019472790 4.5202717740  
H -4.6302485397 16.2408030170 6.8566917740  
H -0.7729887207 6.8821215566 2.1838517740  
H 16.3800722604 4.1104886473 0.1525682260  
H 10.2038462793 12.1303143697 2.4889882260  
H 6.3465864603 2.7716329093 4.8254082260  
H 5.0329886159 16.4269347647 1.3766186640  
H -5.7658021204 15.1576645422 3.7130386640  
H 0.7328135046 6.4402725457 6.0494586640  
H 16.0098236158 2.5855011616 3.2962213360  
H 11.7096485046 12.5721633806 5.6326413360  
H 5.2110328796 3.8547713841 0.9598013360  
H 5.5853429531 15.1416940961 2.4624231306  
H -4.9289282200 16.2786377645 4.7988431306  
H -0.6564147330 6.6045399921 0.1260031306  
H 16.5621779530 3.8707418302 2.2104168694  
H 10.3204202670 12.4078959342 4.5468368694  
H 6.0479067800 2.7337981618 6.8832568694  
H 7.2649084764 14.3969769808 0.8076770298  
H -5.1237670413 18.1055427326 3.1440970298  
H -2.1411414351 5.5223521392 5.4805170298  
H 18.2417434764 4.6154589455 3.8651629702  
H 8.8356935649 13.4900837871 6.2015829702  
H 5.8530679587 0.9068931937 1.5287429702  
H 7.4969587683 16.1187431783 1.1007341904  
H -6.7308854536 17.4456210816 3.4371541904  
H -0.7660733146 4.4605075927 5.7735741904  
H 18.4737937683 2.8936927480 3.5721058096  
H 10.2107616854 14.5519283336 5.9085258096  
H 4.2459495464 1.5668148447 1.2356858096  
H 6.2502098490 16.6750470535 6.0194823954  
H -6.5892842821 16.0877529078 1.3466423954  
H 0.3390744332 5.2620718913 3.6830623954  
H 17.2270448490 2.3373888728 5.6626176046  
H 11.3159094332 13.7503640350 0.9897776046  
H 4.3875507179 2.9246830185 3.3261976046  
H 7.5688570376 15.5580664429 5.6420337444  
H -6.2812742920 17.7882251770 0.9691937444  
H -1.2875827455 4.6785802327 3.3056137444  
H 18.5456920376 3.4543694834 6.0400662556  
H 9.6892522545 14.3338556936 1.3672262556  
H 4.6955607080 1.2242107493 3.7036462556  
H 2.3397123803 13.9781330174 0.7872099906  
H -2.2984394806 14.0496197765 3.1236299906  
H -0.0412728996 9.9971190588 5.4600499906  
H 13.3165473802 5.0343029089 3.8856300094  
H 10.9355621004 9.0153168675 6.2220500094  
H 8.6783955193 4.9628161498 1.5492100094  
H 4.8357348909 13.4132735460 0.8697790734  
H -3.0572680842 16.4936684148 3.2061990734  
H -1.7784668067 8.1179298918 5.5426190734  
H 15.8125698909 5.5991623803 3.8030609266  
H 9.1983681933 10.8945060345 6.1394809266  
H 7.9195669158 2.5187675115 1.4666409266  
H 3.6974371014 13.1539439200 2.8553622462  
H -2.2635331453 15.6375384250 5.1917822462  
H -1.4339039560 9.2333895076 0.5189422462  
H 14.6742721014 5.8584920063 1.8174777538  
H 9.5429310440 9.7790464187 4.1538977538  
H 8.7133018547 3.3748975013 6.4903177538  
H 3.2889890711 14.6044026568 3.4789761084  
H -3.3154432434 14.5585826862 5.8153961084  
H 0.0264541724 8.8618865096 1.1425561084  
H 14.2658240710 4.4080332695 1.1938638916  
H 11.0032891724 10.1505494167 3.5302838916  
H 7.6613917566 4.4538532401 5.8667038916  
C 11.3161289699 3.2756525857 0.7992659178  
C 13.4588071619 8.1622288675 3.1356859178  
C 8.1555688683 7.5745544730 5.4721059178  
C 0.3392939699 15.7367833406 3.8735740822  
C -2.8212661317 11.4378814533 6.2099940822  
C 2.4819721619 10.8502070588 1.5371540822  
C 10.9520273529 3.1252642176 2.1845059716  
C 13.7710981176 7.9221018018 4.5209259716  
C 8.2073795295 7.9650699070 6.8573459716  
C -0.0248076471 15.8871717087 2.4883340284  
C -2.7694554705 11.0473660193 4.8247540284  
C 2.7942631176 11.0903341245 0.1519140284  
C 10.8687131752 1.8303272066 2.7394991784  
C 14.9342035542 8.4974181129 5.0759191784  
C 7.1275882706 8.6846906068 0.4030791784  
C -0.1081218247 17.1821087197 1.9333408216  
C -3.8492467294 10.3277453195 4.2697608216  
C 3.9573685542 10.5150178134 6.6061808216  
C 11.1645388785 0.6715192369 2.0153024352  
C 15.7898478425 9.3330146719 4.3517224352  
C 5.9761182791 9.0079020175 6.6881424352  
C 0.1877038785 18.3409166894 2.6575375648  
C -5.0007167209 10.0045339088 4.9939575648  
C 4.8130128425 9.6794212544 0.3211175648  
C 11.5174441237 0.8367373051 0.6527723838  
C 15.4703121756 9.5560305453 2.9891923838  
C 5.9427487007 8.6196680759 5.3256123838  
C 0.5406091238 18.1756986212 4.0200676162  
C -5.0340862993 10.3927678504 6.3564876162  
C 4.4934771756 9.4564053810 1.6836476162  
C 11.5811097667 2.0911778275 0.0628730622  
C 14.3521019942 8.9839463483 2.3992930622  
C 6.9972932391 7.9373117505 4.7357130622  
C 0.6042747668 16.9212580988 4.6099669378  
C -3.9795417609 11.0751241758 6.9463869378  
C 3.3752669942 10.0284895780 2.2735469378  
C 10.6530183675 4.2781783321 3.0898219932  
C 12.9221496987 7.0866953672 5.4262419932  
C 9.3553369338 7.6475622270 0.7534019932  
C -0.3238166325 14.7342575942 1.5830180068  
C -1.6214980662 11.3648736993 3.9194380068  
C 1.9453146987 11.9257405591 6.2558580068  
C 4.4508870558 14.4494513040 0.7509020238  
C -3.7622004279 15.6422915340 3.0873220238  
C -0.6886866279 7.9331290146 5.4237420238  
C 15.4277220558 4.5629846223 3.9219379762  
C 10.2881483721 11.0793069117 6.2583579762  
C 7.2146345721 3.3701443923 1.5855179762  
C 5.5905020655 14.6715165556 5.5769878116  
C -4.5243220819 16.5181944571 0.9041478116  
C -1.0661799835 6.8351608399 3.2405678116  
C 16.5673370655 4.3409193707 6.1051121884  
C 9.9106550165 12.1772750864 1.4322721884  
C 6.4525129180 2.4942414692 3.7686921884  
C 6.6129942458 15.6516076276 6.1669572258  
C -5.8843519384 16.9136531244 1.4941172258  
C -0.7286423073 5.4596111006 3.8305372258  
C 17.5898292457 3.3608282987 5.5151427742  
C 10.2481926927 13.5528248257 0.8423027742  
C 5.0924830616 2.0987828019 3.1787227742  
C 5.4538404698 15.4131916811 1.4060575560  
C -5.0983007841 16.0290044807 3.7424775560  
C -0.3555396856 6.5826756908 6.0788975560  
C 16.4306754697 3.5992442452 3.2667824440  
C 10.6212953144 12.4297602355 5.6032024440  
C 5.8785342159 2.9834314456 0.9303624440  
C 6.8064060785 15.3846730272 0.6723983118  
C -5.7498857097 17.2146199851 3.0088183118  
C -1.0565203687 5.4255788403 5.3452383118  
C 17.7832410784 3.6277628991 4.0004416882  
C 9.9203146312 13.5868570860 6.3368616882  
C 5.2269492903 1.7978159412 1.6640216882  
C 3.0602318297 14.5108614720 1.4078098710  
C -3.1200555804 14.4072436962 3.7442298710  
C 0.0598237508 9.1067666843 6.0806498710  
C 14.0370668297 4.5015744543 3.2650301290  
C 11.0366587508 9.9056692420 5.6014501290  
C 7.8567794196 4.6051922301 0.9286101290  
N 4.3109324096 14.7834998032 6.3126096486  
N -3.9815175912 15.3540630054 1.6397696486  
N -0.3294148183 7.8873090440 3.9761896486  
N 15.2877674095 4.2289361231 5.3694903514  
N 10.6474201817 11.1251268823 0.6966503514  
N 6.9953174088 3.6583729209 3.0330703514  
N 3.0096286203 13.9094981237 2.7858303870  
N -2.5739580391 14.6641017056 5.1222503870  
N -0.4356705811 9.4512720233 0.4494103870  
N 13.9864636203 5.1029378026 1.8870096130  
N 10.5411644189 9.5611639030 4.2234296130  
N 8.4028769609 4.3483342207 6.5598496130  
C 10.7046820661 18.5410532174 3.5046300000  
O 10.7046820661 18.5410532174 2.3446300000  
O 10.7046820661 18.5410532174 4.6646300000  

