
     Program PWSCF v.7.5 starts on 16Sep2026 at 12:43: 0 

     This program is part of the open-source Quantum ESPRESSO suite
     for quantum simulation of materials; please cite
         "P. Giannozzi et al., J. Phys.:Condens. Matter 21 395502 (2009);
         "P. Giannozzi et al., J. Phys.:Condens. Matter 29 465901 (2017);
         "P. Giannozzi et al., J. Chem. Phys. 152 154105 (2020);
          URL http://www.quantum-espresso.org", 
     in publications or presentations arising from this work. More details at
     http://www.quantum-espresso.org/quote

     Parallel version (MPI & OpenMP), running on      48 processor cores
     Number of MPI processes:                24
     Threads/MPI process:                     2

     MPI processes distributed on     1 nodes
     28388 MiB available memory on the printing compute node when the environment starts

     Reading input from espresso.pwi
Warning: card &CELL ignored
Warning: card &FCP ignored
Warning: card &RISM ignored

     Current dimensions of program PWSCF are:
     Max number of different atomic species (ntypx) = 10
     Max number of k-points (npk) =  40000
     Max angular momentum in pseudopotentials (lmaxx) =  4
     file Mg.pbe-n-kjpaw_psl.0.3.0.UPF: wavefunction(s)  3S renormalized
     file O.pbe-n-kjpaw_psl.0.1.UPF: wavefunction(s)  2P renormalized
     file C.pbe-n-kjpaw_psl.1.0.0.UPF: wavefunction(s)  2S 2P renormalized

     IMPORTANT: XC functional enforced from input :
     Exchange-correlation= VDW-DF2
                           (   1   4  13   0   2   0   0)
     Any further DFT definition will be discarded
     Please, verify this is what you really want

     Message from routine setup:
     using ibrav=0 with symmetry is DISCOURAGED, use correct ibrav instead

     R & G space division:  proc/nbgrp/npool/nimage =      24
     Subspace diagonalization in iterative solution of the eigenvalue problem:
     one sub-group per band group will be used
     ELPA distributed-memory algorithm (size of sub-group:  3*  3 procs)


     Parallelization info
     --------------------
     sticks:   dense  smooth     PW     G-vecs:    dense   smooth      PW
     Min        2371    1186    314               146092    51664    7070
     Max        2373    1187    316               146095    51667    7071
     Sum       56923   28471   7567              3506235  1239959  169683

     Using Slab Decomposition



     bravais-lattice index     =            0
     lattice parameter (alat)  =      41.4864  a.u.
     unit-cell volume          =   19743.0237 (a.u.)^3
     number of atoms/cell      =          219
     number of atomic types    =            5
     number of electrons       =       610.00
     number of Kohn-Sham states=          305
     kinetic-energy cutoff     =      60.0000  Ry
     charge density cutoff     =     480.0000  Ry
     scf convergence threshold =      1.0E-07
     mixing beta               =       0.3000
     number of iterations used =            8  plain     mixing
     energy convergence thresh.=      1.0E-04
     force convergence thresh. =      1.0E-03
     Exchange-correlation= VDW-DF2
                           (   1   4  13   0   2   0   0)
     nstep                     =          300


     celldm(1)=  41.486424  celldm(2)=   0.000000  celldm(3)=   0.000000
     celldm(4)=   0.000000  celldm(5)=   0.000000  celldm(6)=   0.000000

     crystal axes: (cart. coord. in units of alat)
               a(1) = (   1.000000   0.000000   0.000000 )  
               a(2) = (  -0.500000   0.866025   0.000000 )  
               a(3) = (   0.000000   0.000000   0.319275 )  

     reciprocal axes: (cart. coord. in units 2 pi/alat)
               b(1) = (  1.000000  0.577350 -0.000000 )  
               b(2) = (  0.000000  1.154701  0.000000 )  
               b(3) = (  0.000000 -0.000000  3.132095 )  


     PseudoPot. # 1 for Mg read from file:
     /home/seyoung/pseudo/Mg.pbe-n-kjpaw_psl.0.3.0.UPF
     MD5 check sum: 24ecedc7f3e3cbe212e682f4413594e4
     Pseudo is Projector augmented-wave + core cor, Zval =  2.0
     Generated using "atomic" code by A. Dal Corso  v.5.0.99 svn rev. 10869
     Shape of augmentation charge: PSQ
     Using radial grid of 1129 points,  4 beta functions with: 
                l(1) =   0
                l(2) =   0
                l(3) =   1
                l(4) =   1
     Q(r) pseudized with 0 coefficients 


     PseudoPot. # 2 for O  read from file:
     /home/seyoung/pseudo/O.pbe-n-kjpaw_psl.0.1.UPF
     MD5 check sum: 0234752ac141de4415c5fc33072bef88
     Pseudo is Projector augmented-wave + core cor, Zval =  6.0
     Generated using "atomic" code by A. Dal Corso  v.5.0.99 svn rev. 10869
     Shape of augmentation charge: BESSEL
     Using radial grid of 1095 points,  4 beta functions with: 
                l(1) =   0
                l(2) =   0
                l(3) =   1
                l(4) =   1
     Q(r) pseudized with 0 coefficients 


     PseudoPot. # 3 for H  read from file:
     /home/seyoung/pseudo/H.pbe-rrkjus_psl.1.0.0.UPF
     MD5 check sum: f52b6d4d1c606e5624b1dc7b2218f220
     Pseudo is Ultrasoft, Zval =  1.0
     Generated using "atomic" code by A. Dal Corso  v.5.1
     Using radial grid of  929 points,  2 beta functions with: 
                l(1) =   0
                l(2) =   0
     Q(r) pseudized with 0 coefficients 


     PseudoPot. # 4 for C  read from file:
     /home/seyoung/pseudo/C.pbe-n-kjpaw_psl.1.0.0.UPF
     MD5 check sum: 5d2aebdfa2cae82b50a7e79e9516da0f
     Pseudo is Projector augmented-wave + core cor, Zval =  4.0
     Generated using "atomic" code by A. Dal Corso  v.5.1
     Shape of augmentation charge: PSQ
     Using radial grid of 1073 points,  4 beta functions with: 
                l(1) =   0
                l(2) =   0
                l(3) =   1
                l(4) =   1
     Q(r) pseudized with 0 coefficients 


     PseudoPot. # 5 for N  read from file:
     /home/seyoung/pseudo/N.pbe-n-radius_5.UPF
     MD5 check sum: 16739722b17309cd8fe442a2ace49922
     Pseudo is Ultrasoft + core correction, Zval =  5.0
     Generated using "atomic" code by A. Dal Corso  v.5.1
     Using radial grid of 1085 points,  4 beta functions with: 
                l(1) =   0
                l(2) =   0
                l(3) =   1
                l(4) =   1
     Q(r) pseudized with 0 coefficients 


     atomic species   valence    mass     pseudopotential
     Mg                2.00    24.30500     Mg( 1.00)
     O                 6.00    15.99900     O ( 1.00)
     H                 1.00     1.00800     H ( 1.00)
     C                 4.00    12.01100     C ( 1.00)
     N                 5.00    14.00700     N ( 1.00)

      2 Sym. Ops. (no inversion) found



   Cartesian axes

     site n.     atom                  positions (alat units)
         1        Mg     tau(   1) = (   0.4660700   0.2473369   0.2655826  )
         2        Mg     tau(   2) = (   0.5527650   0.2799600   0.0527325  )
         3        Mg     tau(   3) = (   0.4811650   0.3387285   0.1591576  )
         4        Mg     tau(   4) = (  -0.0339300   0.6186885   0.2665426  )
         5        Mg     tau(   5) = (  -0.0188350   0.5272969   0.0536925  )
         6        Mg     tau(   6) = (   0.0527650   0.5860654   0.1601175  )
         7        O      tau(   7) = (   0.5209950   0.2033168   0.0083331  )
         8        O      tau(   8) = (   0.5634250   0.3495365   0.1147581  )
         9        O      tau(   9) = (   0.4155800   0.3131721   0.2211831  )
        10        O      tau(  10) = (   0.0209950   0.6627086   0.2045170  )
        11        O      tau(  11) = (  -0.0844200   0.5528533   0.3109420  )
        12        O      tau(  12) = (   0.0634250   0.5164889   0.0980920  )
        13        O      tau(  13) = (   0.4927850   0.2499090   0.1209638  )
        14        O      tau(  14) = (   0.5371800   0.3018099   0.2273888  )
        15        O      tau(  15) = (   0.4700350   0.3143066   0.0145387  )
        16        O      tau(  16) = (  -0.0072150   0.6161165   0.0918863  )
        17        O      tau(  17) = (  -0.0299650   0.5517188   0.1983113  )
        18        O      tau(  18) = (   0.0371800   0.5642156   0.3047364  )
        19        O      tau(  19) = (   0.4662300   0.1847752   0.1950132  )
        20        O      tau(  20) = (   0.6068650   0.3113794   0.3014383  )
        21        O      tau(  21) = (   0.4269050   0.3698708   0.0885882  )
        22        O      tau(  22) = (  -0.0337700   0.6812502   0.0178368  )
        23        O      tau(  23) = (  -0.0730950   0.4961546   0.1242619  )
        24        O      tau(  24) = (   0.1068650   0.5546460   0.2306869  )
        25        H      tau(  25) = (   0.4813100   0.0801073   0.1720669  )
        26        H      tau(  26) = (   0.6899700   0.3767730   0.2784920  )
        27        H      tau(  27) = (   0.3287200   0.4091450   0.0656419  )
        28        H      tau(  28) = (  -0.0186900   0.7859181   0.0407831  )
        29        H      tau(  29) = (  -0.1712800   0.4568804   0.1472082  )
        30        H      tau(  30) = (   0.1899700   0.4892524   0.2536332  )
        31        H      tau(  31) = (   0.0366950   0.8645099   0.0028128  )
        32        H      tau(  32) = (  -0.2670350   0.4655493   0.1092378  )
        33        H      tau(  33) = (   0.2303400   0.4019917   0.2156629  )
        34        H      tau(  34) = (   0.5366950   0.0015155   0.2100372  )
        35        H      tau(  35) = (   0.7303400   0.4640337   0.3164623  )
        36        H      tau(  36) = (   0.2329650   0.4004761   0.1036122  )
        37        H      tau(  37) = (   0.5413950   0.1004503   0.2749437  )
        38        H      tau(  38) = (   0.6423100   0.4186367   0.0620937  )
        39        H      tau(  39) = (   0.3162950   0.3469384   0.1685187  )
        40        H      tau(  40) = (   0.0413950   0.7655751   0.2571814  )
        41        H      tau(  41) = (  -0.1837050   0.5190870   0.0443313  )
        42        H      tau(  42) = (   0.1423100   0.4473887   0.1507564  )
        43        H      tau(  43) = (   0.1240500   0.7082356   0.0673607  )
        44        H      tau(  44) = (  -0.1753750   0.6193381   0.1737857  )
        45        H      tau(  45) = (   0.0513250   0.4044772   0.2802107  )
        46        H      tau(  46) = (   0.6240500   0.1577898   0.1454894  )
        47        H      tau(  47) = (   0.5513250   0.4615482   0.2519144  )
        48        H      tau(  48) = (   0.3246250   0.2466873   0.0390644  )
        49        H      tau(  49) = (   0.1650700   0.6446520   0.2687754  )
        50        H      tau(  50) = (  -0.1408200   0.6866542   0.0559253  )
        51        H      tau(  51) = (  -0.0242500   0.4007446   0.1623503  )
        52        H      tau(  52) = (   0.6650700   0.2213734   0.2633498  )
        53        H      tau(  53) = (   0.4757500   0.4652808   0.0504997  )
        54        H      tau(  54) = (   0.3591800   0.1793712   0.1569248  )
        55        H      tau(  55) = (   0.2734200   0.6214425   0.2560810  )
        56        H      tau(  56) = (  -0.1748950   0.7920928   0.0432309  )
        57        H      tau(  57) = (  -0.0985250   0.3185155   0.1496559  )
        58        H      tau(  58) = (   0.7734200   0.2445829   0.2760442  )
        59        H      tau(  59) = (   0.4014750   0.5475099   0.0631941  )
        60        H      tau(  60) = (   0.3251050   0.0739326   0.1696191  )
        61        H      tau(  61) = (   0.2461200   0.6787907   0.2059005  )
        62        H      tau(  62) = (  -0.2109100   0.7397762   0.3123255  )
        63        H      tau(  63) = (  -0.0352100   0.3134839   0.0994755  )
        64        H      tau(  64) = (   0.7461200   0.1872347   0.0069496  )
        65        H      tau(  65) = (   0.4647900   0.5525415   0.1133746  )
        66        H      tau(  66) = (   0.2890900   0.1262492   0.2197996  )
        67        H      tau(  67) = (   0.2292550   0.7482546   0.0627056  )
        68        H      tau(  68) = (  -0.2626350   0.6904388   0.1691307  )
        69        H      tau(  69) = (   0.0333800   0.2933574   0.2755557  )
        70        H      tau(  70) = (   0.7292550   0.1177708   0.1501444  )
        71        H      tau(  71) = (   0.5333800   0.5726680   0.2565695  )
        72        H      tau(  72) = (   0.2373650   0.1755867   0.0437194  )
        73        H      tau(  73) = (   0.2544150   0.6897113   0.1121645  )
        74        H      tau(  74) = (  -0.2245150   0.7414996   0.2185896  )
        75        H      tau(  75) = (  -0.0299000   0.3008399   0.0057395  )
        76        H      tau(  76) = (   0.7544150   0.1763141   0.1006855  )
        77        H      tau(  77) = (   0.4701000   0.5651855   0.2071106  )
        78        H      tau(  78) = (   0.2754850   0.1245258   0.3135356  )
        79        H      tau(  79) = (   0.3309200   0.6557891   0.0367901  )
        80        H      tau(  80) = (  -0.2333900   0.8247160   0.1432151  )
        81        H      tau(  81) = (  -0.0975300   0.2515457   0.2496401  )
        82        H      tau(  82) = (   0.8309200   0.2102363   0.1760600  )
        83        H      tau(  83) = (   0.4024700   0.6144797   0.2824850  )
        84        H      tau(  84) = (   0.2666100   0.0413094   0.0696350  )
        85        H      tau(  85) = (   0.3414900   0.7342163   0.0501390  )
        86        H      tau(  86) = (  -0.3065950   0.7946563   0.1565640  )
        87        H      tau(  87) = (  -0.0348950   0.2031782   0.2629890  )
        88        H      tau(  88) = (   0.8414900   0.1318091   0.1627111  )
        89        H      tau(  89) = (   0.4651050   0.6628472   0.2691361  )
        90        H      tau(  90) = (   0.1934050   0.0713692   0.0562861  )
        91        H      tau(  91) = (   0.2847000   0.7595562   0.2741903  )
        92        H      tau(  92) = (  -0.3001450   0.7328047   0.0613402  )
        93        H      tau(  93) = (   0.0154450   0.2396899   0.1677652  )
        94        H      tau(  94) = (   0.7847000   0.1064692   0.2579349  )
        95        H      tau(  95) = (   0.5154450   0.6263356   0.0450848  )
        96        H      tau(  96) = (   0.1998550   0.1332207   0.1515099  )
        97        H      tau(  97) = (   0.3447650   0.7086772   0.2569973  )
        98        H      tau(  98) = (  -0.2861150   0.8102620   0.0441472  )
        99        H      tau(  99) = (  -0.0586500   0.2131115   0.1505723  )
       100        H      tau( 100) = (   0.8447650   0.1573482   0.2751279  )
       101        H      tau( 101) = (   0.4413500   0.6529139   0.0622778  )
       102        H      tau( 102) = (   0.2138850   0.0557634   0.1687028  )
       103        H      tau( 103) = (   0.1065750   0.6367105   0.0358578  )
       104        H      tau( 104) = (  -0.1046950   0.6399668   0.1422828  )
       105        H      tau( 105) = (  -0.0018800   0.4553735   0.2487078  )
       106        H      tau( 106) = (   0.6065750   0.2293149   0.1769923  )
       107        H      tau( 107) = (   0.4981200   0.4106519   0.2834173  )
       108        H      tau( 108) = (   0.3953050   0.2260586   0.0705672  )
       109        H      tau( 109) = (   0.2202700   0.6109809   0.0396188  )
       110        H      tau( 110) = (  -0.1392600   0.7512944   0.1460439  )
       111        H      tau( 111) = (  -0.0810100   0.3697755   0.2524689  )
       112        H      tau( 112) = (   0.7202700   0.2550445   0.1732312  )
       113        H      tau( 113) = (   0.4189900   0.4962499   0.2796562  )
       114        H      tau( 114) = (   0.3607400   0.1147310   0.0668062  )
       115        H      tau( 115) = (   0.1684200   0.5991683   0.1300631  )
       116        H      tau( 116) = (  -0.1031050   0.7122972   0.2364881  )
       117        H      tau( 117) = (  -0.0653150   0.4205852   0.0236381  )
       118        H      tau( 118) = (   0.6684200   0.2668571   0.0827870  )
       119        H      tau( 119) = (   0.4346850   0.4454402   0.1892120  )
       120        H      tau( 120) = (   0.3968950   0.1537282   0.2956370  )
       121        H      tau( 121) = (   0.1498150   0.6652374   0.1584690  )
       122        H      tau( 122) = (  -0.1510200   0.6631503   0.2648940  )
       123        H      tau( 123) = (   0.0012050   0.4036631   0.0520440  )
       124        H      tau( 124) = (   0.6498150   0.2007880   0.0543811  )
       125        H      tau( 125) = (   0.5012050   0.4623623   0.1608061  )
       126        H      tau( 126) = (   0.3489800   0.2028751   0.2672311  )
       127        C      tau( 127) = (   0.5154550   0.1492075   0.0364069  )
       128        C      tau( 128) = (   0.6130550   0.3717934   0.1428320  )
       129        C      tau( 129) = (   0.3714900   0.3450245   0.2492570  )
       130        C      tau( 130) = (   0.0154550   0.7168179   0.1764431  )
       131        C      tau( 131) = (  -0.1285100   0.5210009   0.2828682  )
       132        C      tau( 132) = (   0.1130550   0.4942320   0.0700181  )
       133        C      tau( 133) = (   0.4988700   0.1423573   0.0995053  )
       134        C      tau( 134) = (   0.6272800   0.3608555   0.2059303  )
       135        C      tau( 135) = (   0.3738500   0.3628127   0.3123553  )
       136        C      tau( 136) = (  -0.0011300   0.7236681   0.1133448  )
       137        C      tau( 137) = (  -0.1261500   0.5032127   0.2197698  )
       138        C      tau( 138) = (   0.1272800   0.5051699   0.0069198  )
       139        C      tau( 139) = (   0.4950750   0.0833723   0.1247855  )
       140        C      tau( 140) = (   0.6802600   0.3870614   0.2312105  )
       141        C      tau( 141) = (   0.3246650   0.3955917   0.0183604  )
       142        C      tau( 142) = (  -0.0049250   0.7826531   0.0880646  )
       143        C      tau( 143) = (  -0.1753350   0.4704337   0.1944896  )
       144        C      tau( 144) = (   0.1802600   0.4789640   0.3009146  )
       145        C      tau( 145) = (   0.5085500   0.0305880   0.0917980  )
       146        C      tau( 146) = (   0.7192350   0.4251232   0.1982230  )
       147        C      tau( 147) = (   0.2722150   0.4103142   0.3046480  )
       148        C      tau( 148) = (   0.0085500   0.8354374   0.1210521  )
       149        C      tau( 149) = (  -0.2277850   0.4557112   0.2274771  )
       150        C      tau( 150) = (   0.2192350   0.4409022   0.0146271  )
       151        C      tau( 151) = (   0.5246250   0.0381138   0.0297341  )
       152        C      tau( 152) = (   0.7046800   0.4352817   0.1361591  )
       153        C      tau( 153) = (   0.2706950   0.3926299   0.2425842  )
       154        C      tau( 154) = (   0.0246250   0.8279116   0.1831160  )
       155        C      tau( 155) = (  -0.2293050   0.4733955   0.2895410  )
       156        C      tau( 156) = (   0.2046800   0.4307437   0.0766909  )
       157        C      tau( 157) = (   0.5275250   0.0952541   0.0028639  )
       158        C      tau( 158) = (   0.6537450   0.4092230   0.1092889  )
       159        C      tau( 159) = (   0.3187300   0.3615483   0.2157140  )
       160        C      tau( 160) = (   0.0275250   0.7707713   0.2099862  )
       161        C      tau( 161) = (  -0.1812700   0.5044771   0.3164112  )
       162        C      tau( 162) = (   0.1537450   0.4568024   0.1035611  )
       163        C      tau( 163) = (   0.4852500   0.1948730   0.1407428  )
       164        C      tau( 164) = (   0.5886100   0.3228023   0.2471679  )
       165        C      tau( 165) = (   0.4261400   0.3483501   0.0343178  )
       166        C      tau( 166) = (  -0.0147500   0.6711524   0.0721072  )
       167        C      tau( 167) = (  -0.0738600   0.5176753   0.1785322  )
       168        C      tau( 168) = (   0.0886100   0.5432231   0.2849573  )
       169        C      tau( 169) = (   0.2027400   0.6581793   0.0342039  )
       170        C      tau( 170) = (  -0.1713700   0.7125137   0.1406290  )
       171        C      tau( 171) = (  -0.0313700   0.3613578   0.2470540  )
       172        C      tau( 172) = (   0.7027400   0.2078461   0.1786461  )
       173        C      tau( 173) = (   0.4686300   0.5046676   0.2850712  )
       174        C      tau( 174) = (   0.3286300   0.1535117   0.0722211  )
       175        C      tau( 175) = (   0.2546500   0.6682945   0.2540344  )
       176        C      tau( 176) = (  -0.2060850   0.7524115   0.0411844  )
       177        C      tau( 177) = (  -0.0485650   0.3113448   0.1476094  )
       178        C      tau( 178) = (   0.7546500   0.1977309   0.2780907  )
       179        C      tau( 179) = (   0.4514350   0.5546806   0.0652407  )
       180        C      tau( 180) = (   0.2939150   0.1136139   0.1716657  )
       181        C      tau( 181) = (   0.3012250   0.7129381   0.2809078  )
       182        C      tau( 182) = (  -0.2680350   0.7704249   0.0680577  )
       183        C      tau( 183) = (  -0.0331900   0.2486879   0.1744828  )
       184        C      tau( 184) = (   0.8012250   0.1530873   0.2512173  )
       185        C      tau( 185) = (   0.4668100   0.6173375   0.0383673  )
       186        C      tau( 186) = (   0.2319650   0.0956005   0.1447923  )
       187        C      tau( 187) = (   0.2484250   0.7020781   0.0640466  )
       188        C      tau( 188) = (  -0.2322300   0.7301287   0.1704716  )
       189        C      tau( 189) = (  -0.0161950   0.2998440   0.2768966  )
       190        C      tau( 190) = (   0.7484250   0.1639473   0.1488035  )
       191        C      tau( 191) = (   0.4838050   0.5661814   0.2552285  )
       192        C      tau( 192) = (   0.2677700   0.1358967   0.0423784  )
       193        C      tau( 193) = (   0.3100350   0.7007791   0.0306281  )
       194        C      tau( 194) = (  -0.2619100   0.7841340   0.1370531  )
       195        C      tau( 195) = (  -0.0481250   0.2471377   0.2434781  )
       196        C      tau( 196) = (   0.8100350   0.1652463   0.1822220  )
       197        C      tau( 197) = (   0.4518750   0.6188877   0.2886470  )
       198        C      tau( 198) = (   0.2380900   0.0818914   0.0757970  )
       199        C      tau( 199) = (   0.1393950   0.6609766   0.0641264  )
       200        C      tau( 200) = (  -0.1421200   0.6562567   0.1705514  )
       201        C      tau( 201) = (   0.0027250   0.4148175   0.2769765  )
       202        C      tau( 202) = (   0.6393950   0.2050488   0.1487237  )
       203        C      tau( 203) = (   0.5027250   0.4512079   0.2551487  )
       204        C      tau( 204) = (   0.3578800   0.2097687   0.0422986  )
       205        N      tau( 205) = (   0.1963650   0.6733954   0.2875423  )
       206        N      tau( 206) = (  -0.1813600   0.6993848   0.0746923  )
       207        N      tau( 207) = (  -0.0150050   0.3592706   0.1811173  )
       208        N      tau( 208) = (   0.6963650   0.1926300   0.2445828  )
       209        N      tau( 209) = (   0.4849950   0.5067548   0.0317328  )
       210        N      tau( 210) = (   0.3186400   0.1666406   0.1381578  )
       211        N      tau( 211) = (   0.1370900   0.6335842   0.1268959  )
       212        N      tau( 212) = (  -0.1172450   0.6679567   0.2333209  )
       213        N      tau( 213) = (  -0.0198450   0.4305099   0.0204709  )
       214        N      tau( 214) = (   0.6370900   0.2324412   0.0859542  )
       215        N      tau( 215) = (   0.4801550   0.4355155   0.1923792  )
       216        N      tau( 216) = (   0.3827550   0.1980687   0.2988042  )
       217        C      tau( 217) = (   0.4876033   0.8445537   0.1596375  )
       218        O      tau( 218) = (   0.4876033   0.8445537   0.1067990  )
       219        O      tau( 219) = (   0.4876033   0.8445537   0.2124761  )

     number of k points=     2
                       cart. coord. in units 2pi/alat
        k(    1) = (   0.0000000   0.0000000   0.0000000), wk =   1.0000000
        k(    2) = (   0.0000000   0.0000000  -1.5660476), wk =   1.0000000

     Dense  grid:  3506235 G-vectors     FFT dimensions: ( 300, 300,  96)

     Smooth grid:  1239959 G-vectors     FFT dimensions: ( 216, 216,  72)

     Estimated max dynamical RAM per process >       1.06 GB

     Estimated total dynamical RAM >      25.37 GB

     Check: negative core charge=   -0.000001

     Initial potential from superposition of free atoms

     starting charge     609.9901, renormalised to     610.0000


     %%%%%%%%%%%%%%%%%%%%%%%%%%%%%%%%%%%%%%%%%%%%%%%%%%%%%%%%%%%%%%%%%%%%%%%%
     %                                                                      %
     % You are using vdW-DF, which was implemented by the Thonhauser group. %
     % Please cite the following two papers that made this development      %
     % possible and the two reviews that describe the various versions:     %
     %                                                                      %
     %   T. Thonhauser et al., PRL 115, 136402 (2015).                      %
     %   T. Thonhauser et al., PRB 76, 125112 (2007).                       %
     %   K. Berland et al., Rep. Prog. Phys. 78, 066501 (2015).             %
     %   D.C. Langreth et al., J. Phys.: Condens. Matter 21, 084203 (2009). %
     %                                                                      %
     % If you are calculating stress with vdW-DF, please also cite:         %
     %                                                                      %
     %   R. Sabatini et al., J. Phys.: Condens. Matter 24, 424209 (2012).   %
     %                                                                      %
     %%%%%%%%%%%%%%%%%%%%%%%%%%%%%%%%%%%%%%%%%%%%%%%%%%%%%%%%%%%%%%%%%%%%%%%%

     %%%%%%%%%%%%%%%%%%%%%%%%%%%%%%%%%%%%%%%%%%%%%%%%%%%%%%%%%%%%%%%%%%%%%%%%
     %                                                                      %
     %  vdW-DF NEWS:                                                        %
     %                                                                      %
     %  * vdW-DF3 is now available. DOI: 10.1021/acs.jctc.0c00471           %
     %    use with input_dft = 'vdW-DF3-opt1' or 'vdW-DF3-opt2'             %
     %                                                                      %
     %  * Unscreened and range-separated hybrid vdW-DF-cx functionals       %
     %    DOI: 10.1063/1.4986522 and 10.1088/1361-648X/ac2ad2               %
     %    use with input_dft = 'vdW-DF-cx0'    and 'vdW-DF-ahcx'            %
     %  * Unscreened and range-separated hybrid vdW-DF2-b86r functionals    %
     %    DOI: 10.1063/1.4986522 and DOI: 10.1103/PhysRevX.12.041003        %
     %    use with input_dft = 'vdW-DF2-br0' and 'vdW-DF2-ahbr'             %
     %                                                                      %
     %%%%%%%%%%%%%%%%%%%%%%%%%%%%%%%%%%%%%%%%%%%%%%%%%%%%%%%%%%%%%%%%%%%%%%%%


     Starting wfcs are  570 randomized atomic wfcs
     Checking if some PAW data can be deallocated... 

     total cpu time spent up to now is       48.9 secs

     per-process dynamical memory:   323.0 Mb

     Self-consistent Calculation

     iteration #  1     ecut=    60.00 Ry     beta= 0.30
     Davidson diagonalization with overlap
     ethr =  1.00E-02,  avg # of iterations =  2.0

     total cpu time spent up to now is      126.5 secs

     total energy              =   -2937.46543178 Ry
     estimated scf accuracy    <      28.61484316 Ry

     iteration #  2     ecut=    60.00 Ry     beta= 0.30
     Davidson diagonalization with overlap
     ethr =  4.69E-03,  avg # of iterations =  2.0

     total cpu time spent up to now is      195.0 secs

     total energy              =   -2937.06524326 Ry
     estimated scf accuracy    <       6.13590662 Ry

     iteration #  3     ecut=    60.00 Ry     beta= 0.30
     Davidson diagonalization with overlap
     ethr =  1.01E-03,  avg # of iterations =  3.5

     total cpu time spent up to now is      278.1 secs

     total energy              =   -2938.05163076 Ry
     estimated scf accuracy    <       1.13555915 Ry

     iteration #  4     ecut=    60.00 Ry     beta= 0.30
     Davidson diagonalization with overlap
     ethr =  1.86E-04,  avg # of iterations =  2.0

     negative rho (up, down):  1.229E-07 0.000E+00

     total cpu time spent up to now is      348.6 secs

     total energy              =   -2938.03691469 Ry
     estimated scf accuracy    <       0.29410968 Ry

     iteration #  5     ecut=    60.00 Ry     beta= 0.30
     Davidson diagonalization with overlap
     ethr =  4.82E-05,  avg # of iterations =  4.0

     negative rho (up, down):  1.553E-07 0.000E+00

     total cpu time spent up to now is      432.6 secs

     total energy              =   -2938.05917726 Ry
     estimated scf accuracy    <       0.07356669 Ry

     iteration #  6     ecut=    60.00 Ry     beta= 0.30
     Davidson diagonalization with overlap
     ethr =  1.21E-05,  avg # of iterations =  6.0

     negative rho (up, down):  2.240E-07 0.000E+00

     total cpu time spent up to now is      521.3 secs

     total energy              =   -2938.07907218 Ry
     estimated scf accuracy    <       0.01750298 Ry

     iteration #  7     ecut=    60.00 Ry     beta= 0.30
     Davidson diagonalization with overlap
     ethr =  2.87E-06,  avg # of iterations =  6.0

     negative rho (up, down):  2.885E-07 0.000E+00

     total cpu time spent up to now is      603.6 secs

     total energy              =   -2938.08184114 Ry
     estimated scf accuracy    <       0.00234608 Ry

     iteration #  8     ecut=    60.00 Ry     beta= 0.30
     Davidson diagonalization with overlap
     ethr =  3.85E-07,  avg # of iterations =  6.5

     negative rho (up, down):  2.946E-07 0.000E+00

     total cpu time spent up to now is      696.8 secs

     total energy              =   -2938.08252054 Ry
     estimated scf accuracy    <       0.00090172 Ry

     iteration #  9     ecut=    60.00 Ry     beta= 0.30
     Davidson diagonalization with overlap
     ethr =  1.48E-07,  avg # of iterations =  4.5

     negative rho (up, down):  3.024E-07 0.000E+00

     total cpu time spent up to now is      776.1 secs

     total energy              =   -2938.08263707 Ry
     estimated scf accuracy    <       0.00007165 Ry

     iteration # 10     ecut=    60.00 Ry     beta= 0.30
     Davidson diagonalization with overlap
     ethr =  1.17E-08,  avg # of iterations =  6.5

     negative rho (up, down):  3.089E-07 0.000E+00

     total cpu time spent up to now is      892.6 secs

     total energy              =   -2938.08266551 Ry
     estimated scf accuracy    <       0.00004937 Ry

     iteration # 11     ecut=    60.00 Ry     beta= 0.30
     Davidson diagonalization with overlap
     ethr =  8.09E-09,  avg # of iterations =  5.0

     negative rho (up, down):  3.119E-07 0.000E+00

     total cpu time spent up to now is      988.6 secs

     total energy              =   -2938.08268045 Ry
     estimated scf accuracy    <       0.00000501 Ry

     iteration # 12     ecut=    60.00 Ry     beta= 0.30
     Davidson diagonalization with overlap
     ethr =  8.22E-10,  avg # of iterations =  5.5

     negative rho (up, down):  3.140E-07 0.000E+00

     total cpu time spent up to now is     1078.7 secs

     total energy              =   -2938.08267888 Ry
     estimated scf accuracy    <       0.00000613 Ry

     iteration # 13     ecut=    60.00 Ry     beta= 0.30
     Davidson diagonalization with overlap
     ethr =  8.22E-10,  avg # of iterations =  5.0

     negative rho (up, down):  3.157E-07 0.000E+00

     total cpu time spent up to now is     1178.2 secs

     total energy              =   -2938.08268062 Ry
     estimated scf accuracy    <       0.00000049 Ry

     iteration # 14     ecut=    60.00 Ry     beta= 0.30
     Davidson diagonalization with overlap
     ethr =  8.07E-11,  avg # of iterations = 10.0

     negative rho (up, down):  3.199E-07 0.000E+00

     total cpu time spent up to now is     1277.7 secs

     End of self-consistent calculation

          k = 0.0000 0.0000 0.0000 (154911 PWs)   bands (ev):

   -25.2323 -24.2924 -22.3377 -22.3377 -22.1942 -22.1941 -22.1936 -22.1936
   -20.3997 -20.3993 -20.3829 -20.3825 -20.3823 -20.3819 -19.9218 -19.9214
   -19.9058 -19.9056 -19.9052 -19.9051 -18.6329 -18.6320 -18.6314 -18.6304
   -18.6281 -18.6270 -18.0574 -18.0562 -18.0558 -18.0546 -18.0527 -18.0512
   -17.0342 -17.0257 -17.0250 -16.3944 -16.3731 -16.3725 -15.3340 -15.3340
   -15.3247 -15.2736 -15.2735 -15.2646 -14.7331 -14.7281 -14.7244 -14.7226
   -14.7221 -14.7175 -14.6084 -14.5518 -14.5511 -14.4478 -14.4391 -14.4384
   -14.2158 -14.2152 -14.2053 -13.0513 -12.9760 -12.9754 -12.6753 -12.6732
   -12.6668 -12.6605 -12.6588 -12.6542 -11.6172 -11.6159 -11.6084 -11.5894
   -11.5883 -11.5823 -11.5568 -11.5529 -11.5418 -11.1885 -11.1879 -11.1562
   -10.7123 -10.7101 -10.7078 -10.7016 -10.6850 -10.6821 -10.6710 -10.5986
   -10.5979 -10.2831 -10.2825 -10.2388  -9.7655  -9.7368  -9.6829  -9.6791
    -9.6736  -9.6383  -9.6345  -9.6293  -9.4608  -9.4602  -9.3805  -8.8791
    -8.8787  -8.7636  -8.7629  -8.7202  -8.6837  -8.6766  -8.6679  -8.6657
    -8.6514  -8.6492  -8.5061  -8.5056  -8.4102  -8.3656  -8.3628  -8.3386
    -8.3012  -8.2896  -8.2867  -8.0051  -8.0049  -7.8140  -7.6833  -7.6756
    -7.6753  -7.6015  -7.6011  -7.5313  -7.4427  -7.4426  -7.3900  -7.3412
    -7.3377  -7.3364  -7.3096  -7.3093  -7.2235  -7.2170  -7.2164  -7.2064
    -7.1630  -7.1627  -7.0700  -7.0626  -7.0535  -7.0530  -6.9827  -6.9824
    -6.8897  -6.8891  -6.8867  -6.8279  -6.8259  -6.6900  -6.6345  -6.5855
    -6.5849  -6.5292  -6.5123  -6.5086  -6.4952  -6.4793  -6.4770  -6.4478
    -6.4457  -6.4283  -6.4052  -6.2868  -6.2597  -6.1755  -6.1737  -6.1462
    -6.1460  -6.0830  -6.0826  -6.0805  -6.0442  -6.0420  -6.0140  -5.9995
    -5.9991  -5.9539  -5.8966  -5.8928  -5.8663  -5.6373  -5.6250  -5.6174
    -5.6148  -5.6113  -5.6084  -5.5124  -5.5118  -5.4074  -5.3923  -5.3912
    -5.3895  -5.3105  -5.3101  -5.3011  -5.2662  -5.2468  -5.2443  -5.2152
    -5.2135  -5.2056  -5.1149  -5.1136  -5.0852  -5.0626  -5.0595  -5.0176
    -5.0150  -5.0107  -4.9075  -4.9068  -4.8929  -4.7502  -4.7497  -4.6428
    -4.4306  -4.4293  -4.3762  -4.3741  -4.3519  -4.3436  -4.2760  -4.2685
    -4.2669  -4.2126  -4.2117  -4.1684  -4.1346  -4.1319  -4.1249  -4.1181
    -4.0893  -4.0841  -3.9620  -3.9585  -3.9395  -3.9330  -3.8793  -3.8765
    -3.8204  -3.8180  -3.7661  -3.7631  -3.7251  -3.7208  -3.7197  -3.6149
    -3.5970  -3.5950  -3.3892  -3.3885  -3.3706  -3.3701  -3.3470  -3.0739
    -3.0738  -3.0224  -3.0037  -2.9799  -2.9797  -2.7684  -2.7668  -2.6920
    -2.6904  -2.5473  -2.5439  -2.4529  -2.4526  -2.4458  -2.4454  -2.3824
    -2.3738  -2.1402  -2.1396  -2.1278  -2.1272  -2.1040  -2.0927  -1.9110
    -1.9106  -1.8845  -1.8841  -1.7289  -1.7270  -1.5237  -1.5231  -1.4505
    -1.3073  -1.3050  -1.3019  -1.2666  -1.2657  -1.2623  -0.6277  -0.6271
    -0.5493

          k = 0.0000 0.0000-1.5660 (154844 PWs)   bands (ev):

   -25.2322 -24.2926 -22.2776 -22.2775 -22.2770 -22.2770 -22.1625 -22.1624
   -20.4320 -20.4317 -20.4316 -20.4312 -20.3681 -20.3677 -19.8999 -19.8995
   -19.8994 -19.8990 -19.8768 -19.8766 -18.5957 -18.5945 -18.5929 -18.5918
   -18.5903 -18.5891 -18.1098 -18.1084 -18.1063 -18.1050 -18.1040 -18.1026
   -17.0155 -17.0152 -17.0143 -16.3827 -16.3821 -16.3796 -15.3294 -15.3294
   -15.3200 -15.2690 -15.2690 -15.2601 -14.7249 -14.7247 -14.7201 -14.7194
   -14.7192 -14.7145 -14.5676 -14.5670 -14.5519 -14.4905 -14.4900 -14.4854
   -14.2075 -14.2070 -14.2005 -13.0144 -13.0138 -12.9842 -12.6830 -12.6782
   -12.6751 -12.6697 -12.6645 -12.6614 -11.6042 -11.6035 -11.5603 -11.5393
   -11.5375 -11.5299 -11.4845 -11.4807 -11.4737 -11.1428 -11.1423 -11.0834
   -10.7381 -10.7369 -10.7322 -10.7136 -10.7116 -10.7072 -10.6109 -10.6104
   -10.5400 -10.2858 -10.2853 -10.2524  -9.7504  -9.6975  -9.6946  -9.6848
    -9.6576  -9.6572  -9.6446  -9.6442  -9.6392  -9.4846  -9.2031  -9.2027
    -8.8257  -8.7627  -8.7621  -8.7553  -8.7541  -8.7520  -8.7507  -8.7401
    -8.7174  -8.7117  -8.4410  -8.3408  -8.3404  -8.1343  -8.1316  -8.1186
    -8.0541  -8.0520  -8.0455  -7.9475  -7.8961  -7.8958  -7.8350  -7.8344
    -7.7684  -7.5847  -7.4995  -7.4991  -7.4374  -7.4363  -7.4353  -7.3998
    -7.3844  -7.3823  -7.3140  -7.3019  -7.2628  -7.2628  -7.2522  -7.1850
    -7.1824  -7.1655  -7.1494  -7.1463  -7.1042  -7.1024  -6.9315  -6.9033
    -6.8479  -6.8475  -6.7561  -6.7538  -6.7181  -6.6325  -6.6303  -6.6185
    -6.5713  -6.5706  -6.5494  -6.5051  -6.4765  -6.4765  -6.4413  -6.4388
    -6.3986  -6.3976  -6.3915  -6.3610  -6.3056  -6.3043  -6.2751  -6.2750
    -6.2473  -6.2470  -6.2300  -6.1821  -6.1795  -6.1787  -6.1295  -6.1180
    -6.1151  -6.1127  -6.1106  -6.0919  -6.0167  -5.9888  -5.9361  -5.9320
    -5.8185  -5.7847  -5.7799  -5.5436  -5.5431  -5.5248  -5.4805  -5.4051
    -5.4045  -5.3736  -5.3723  -5.3085  -5.2874  -5.2857  -5.2836  -5.2313
    -5.1937  -5.1926  -5.1185  -5.1175  -5.0516  -5.0508  -5.0464  -5.0044
    -5.0027  -4.9978  -4.7250  -4.7245  -4.7178  -4.6727  -4.6723  -4.5912
    -4.5013  -4.4153  -4.3871  -4.3858  -4.3674  -4.3666  -4.2620  -4.2565
    -4.2554  -4.1308  -4.1278  -4.1191  -4.1024  -4.0994  -4.0779  -4.0689
    -4.0665  -4.0657  -3.9685  -3.9342  -3.9294  -3.8965  -3.8935  -3.8203
    -3.8174  -3.6861  -3.5966  -3.5624  -3.5622  -3.3905  -3.3883  -3.3802
    -3.3690  -3.3673  -3.3597  -3.3570  -3.3553  -3.2779  -3.2775  -3.0100
    -2.9250  -2.9141  -2.9139  -2.8883  -2.8882  -2.8044  -2.7586  -2.7585
    -2.7209  -2.7205  -2.7035  -2.4302  -2.4259  -2.3927  -2.3924  -2.3852
    -2.3849  -2.2027  -2.1679  -2.1673  -2.1237  -2.0789  -2.0784  -1.9266
    -1.9263  -1.9084  -1.9084  -1.9081  -1.8693  -1.5079  -1.5074  -1.4476
    -1.3014  -1.2993  -1.2911  -1.2672  -1.2654  -1.2602  -0.6047  -0.5871
    -0.5865

     highest occupied level (ev):    -0.5493

!    total energy              =   -2938.08268087 Ry
     estimated scf accuracy    <       0.00000005 Ry

     The total energy is the sum of the following terms:
     one-electron contribution =   -5751.84463879 Ry
     hartree contribution      =    3071.32865368 Ry
     xc contribution           =    -693.73926128 Ry
     ewald contribution        =    1356.06651796 Ry
     one-center paw contrib.   =    -919.89395244 Ry

     convergence has been achieved in  14 iterations

     negative rho (up, down):  3.199E-07 0.000E+00

     Forces acting on atoms (cartesian axes, Ry/au):

     atom    1 type  1   force =    -0.00093659   -0.00087073   -0.00086408
     atom    2 type  1   force =     0.00121499   -0.00034233   -0.00087480
     atom    3 type  1   force =    -0.00031926    0.00127525   -0.00086365
     atom    4 type  1   force =    -0.00090397    0.00088105    0.00087480
     atom    5 type  1   force =    -0.00028578   -0.00124647    0.00086408
     atom    6 type  1   force =     0.00126403    0.00036113    0.00086365
     atom    7 type  2   force =     0.00199305   -0.00580032    0.00047391
     atom    8 type  2   force =     0.00403980    0.00461050    0.00047440
     atom    9 type  2   force =    -0.00600215    0.00116147    0.00046663
     atom   10 type  2   force =     0.00197291    0.00580382   -0.00047440
     atom   11 type  2   force =    -0.00601975   -0.00117412   -0.00047391
     atom   12 type  2   force =     0.00400694   -0.00461727   -0.00046663
     atom   13 type  2   force =    -0.00140359   -0.00698894    0.00125793
     atom   14 type  2   force =     0.00676128    0.00225997    0.00125500
     atom   15 type  2   force =    -0.00532513    0.00469413    0.00125375
     atom   16 type  2   force =    -0.00142345    0.00698543   -0.00125500
     atom   17 type  2   force =    -0.00535080   -0.00471002   -0.00125793
     atom   18 type  2   force =     0.00672781   -0.00226463   -0.00125375
     atom   19 type  2   force =     0.00060060    0.00078856   -0.00260022
     atom   20 type  2   force =    -0.00098117    0.00011855   -0.00259792
     atom   21 type  2   force =     0.00038542   -0.00093302   -0.00260692
     atom   22 type  2   force =     0.00059326   -0.00079045    0.00259792
     atom   23 type  2   force =     0.00038261    0.00091441    0.00260022
     atom   24 type  2   force =    -0.00100073   -0.00013272    0.00260692
     atom   25 type  3   force =     0.00064443    0.00005893   -0.00122655
     atom   26 type  3   force =    -0.00037357    0.00052922   -0.00122666
     atom   27 type  3   force =    -0.00026993   -0.00058509   -0.00122831
     atom   28 type  3   force =     0.00064511   -0.00005891    0.00122666
     atom   29 type  3   force =    -0.00027118    0.00058756    0.00122655
     atom   30 type  3   force =    -0.00037174   -0.00052631    0.00122831
     atom   31 type  3   force =    -0.00000947    0.00040815    0.00049999
     atom   32 type  3   force =    -0.00034787   -0.00021289    0.00049832
     atom   33 type  3   force =     0.00035929   -0.00019350    0.00049906
     atom   34 type  3   force =    -0.00001043   -0.00040771   -0.00049832
     atom   35 type  3   force =     0.00035821    0.00019587   -0.00049999
     atom   36 type  3   force =    -0.00034722    0.00021440   -0.00049906
     atom   37 type  3   force =    -0.00144591    0.00020255    0.00157998
     atom   38 type  3   force =     0.00054570   -0.00135190    0.00158100
     atom   39 type  3   force =     0.00089891    0.00115221    0.00157873
     atom   40 type  3   force =    -0.00144363   -0.00020336   -0.00158100
     atom   41 type  3   force =     0.00089837   -0.00115092   -0.00157998
     atom   42 type  3   force =     0.00054839    0.00135458   -0.00157873
     atom   43 type  3   force =     0.00008613   -0.00055584   -0.00014155
     atom   44 type  3   force =     0.00044299    0.00035135   -0.00014246
     atom   45 type  3   force =    -0.00052726    0.00020713   -0.00014111
     atom   46 type  3   force =     0.00008279    0.00055931    0.00014246
     atom   47 type  3   force =    -0.00052444   -0.00020333    0.00014155
     atom   48 type  3   force =     0.00044300   -0.00035305    0.00014111
     atom   49 type  3   force =    -0.00052803   -0.00064073   -0.00115019
     atom   50 type  3   force =     0.00082005   -0.00014333   -0.00114834
     atom   51 type  3   force =    -0.00028723    0.00076572   -0.00117368
     atom   52 type  3   force =    -0.00053415    0.00063852    0.00114834
     atom   53 type  3   force =    -0.00029087   -0.00077765    0.00115019
     atom   54 type  3   force =     0.00080675    0.00013412    0.00117368
     atom   55 type  3   force =    -0.00037822    0.00072837    0.00000261
     atom   56 type  3   force =    -0.00045006   -0.00069223    0.00000646
     atom   57 type  3   force =     0.00083421   -0.00007496    0.00001640
     atom   58 type  3   force =    -0.00037446   -0.00073588   -0.00000646
     atom   59 type  3   force =     0.00081989    0.00003664   -0.00000261
     atom   60 type  3   force =    -0.00048203    0.00068497   -0.00001640
     atom   61 type  3   force =     0.00070590   -0.00101423    0.00637608
     atom   62 type  3   force =     0.00048069    0.00114919    0.00641722
     atom   63 type  3   force =    -0.00124734   -0.00012225    0.00640580
     atom   64 type  3   force =     0.00075488    0.00099088   -0.00641722
     atom   65 type  3   force =    -0.00123130    0.00010421   -0.00637608
     atom   66 type  3   force =     0.00051780   -0.00114135   -0.00640580
     atom   67 type  3   force =     0.00029305   -0.00058969   -0.00021615
     atom   68 type  3   force =     0.00038038    0.00055989   -0.00020885
     atom   69 type  3   force =    -0.00068325    0.00003761   -0.00019748
     atom   70 type  3   force =     0.00029469    0.00060936    0.00020885
     atom   71 type  3   force =    -0.00065721   -0.00004106    0.00021615
     atom   72 type  3   force =     0.00037419   -0.00057291    0.00019748
     atom   73 type  3   force =     0.00119994    0.00157097   -0.00541665
     atom   74 type  3   force =    -0.00199707    0.00023374   -0.00546009
     atom   75 type  3   force =     0.00078040   -0.00186724   -0.00546930
     atom   76 type  3   force =     0.00120095   -0.00161264    0.00546009
     atom   77 type  3   force =     0.00076053    0.00182467    0.00541665
     atom   78 type  3   force =    -0.00200728   -0.00025777    0.00546930
     atom   79 type  3   force =     0.00008838    0.00013300    0.00003746
     atom   80 type  3   force =    -0.00026397    0.00001002    0.00010151
     atom   81 type  3   force =     0.00010342   -0.00015583    0.00004299
     atom   82 type  3   force =     0.00014066   -0.00022360   -0.00010151
     atom   83 type  3   force =     0.00007099    0.00014304   -0.00003746
     atom   84 type  3   force =    -0.00018666    0.00001165   -0.00004299
     atom   85 type  3   force =    -0.00042508   -0.00021342    0.00047391
     atom   86 type  3   force =     0.00042856   -0.00030569    0.00078933
     atom   87 type  3   force =    -0.00004345    0.00078952    0.00065162
     atom   88 type  3   force =    -0.00047901    0.00021830   -0.00078933
     atom   89 type  3   force =     0.00002771   -0.00047484   -0.00047391
     atom   90 type  3   force =     0.00070547    0.00035713   -0.00065162
     atom   91 type  3   force =     0.00023081   -0.00009263   -0.00006441
     atom   92 type  3   force =     0.00000626    0.00025746   -0.00014636
     atom   93 type  3   force =    -0.00014989   -0.00006101   -0.00012734
     atom   94 type  3   force =     0.00021983    0.00013415    0.00014636
     atom   95 type  3   force =    -0.00019562    0.00015357    0.00006441
     atom   96 type  3   force =     0.00002211   -0.00016031    0.00012734
     atom   97 type  3   force =    -0.00037774    0.00001951   -0.00068052
     atom   98 type  3   force =     0.00028213   -0.00057648   -0.00073177
     atom   99 type  3   force =     0.00017071    0.00050699   -0.00083202
     atom  100 type  3   force =    -0.00064031   -0.00004391    0.00073177
     atom  101 type  3   force =     0.00020577   -0.00031738    0.00068052
     atom  102 type  3   force =     0.00035371    0.00040133    0.00083202
     atom  103 type  3   force =     0.00035428    0.00065888    0.00011306
     atom  104 type  3   force =    -0.00075693   -0.00000637    0.00010384
     atom  105 type  3   force =     0.00039185   -0.00063844    0.00011161
     atom  106 type  3   force =     0.00037295   -0.00065870   -0.00010384
     atom  107 type  3   force =     0.00039347    0.00063625   -0.00011306
     atom  108 type  3   force =    -0.00074883    0.00002014   -0.00011161
     atom  109 type  3   force =    -0.00016066    0.00085269   -0.00007306
     atom  110 type  3   force =    -0.00065733   -0.00056722   -0.00007038
     atom  111 type  3   force =     0.00082132   -0.00028107   -0.00008038
     atom  112 type  3   force =    -0.00016256   -0.00085287    0.00007038
     atom  113 type  3   force =     0.00081879    0.00028721    0.00007306
     atom  114 type  3   force =    -0.00065408    0.00057075    0.00008038
     atom  115 type  3   force =    -0.00026369    0.00020782   -0.00013597
     atom  116 type  3   force =    -0.00003585   -0.00033708   -0.00013397
     atom  117 type  3   force =     0.00031100    0.00013010   -0.00013699
     atom  118 type  3   force =    -0.00027400   -0.00019959    0.00013397
     atom  119 type  3   force =     0.00031182   -0.00012445    0.00013597
     atom  120 type  3   force =    -0.00004283    0.00033438    0.00013699
     atom  121 type  3   force =    -0.00000966   -0.00010013   -0.00010984
     atom  122 type  3   force =     0.00009338    0.00003142   -0.00010880
     atom  123 type  3   force =    -0.00007361    0.00006403   -0.00011406
     atom  124 type  3   force =    -0.00001948    0.00009658    0.00010880
     atom  125 type  3   force =    -0.00008188   -0.00005843    0.00010984
     atom  126 type  3   force =     0.00009226   -0.00003173    0.00011406
     atom  127 type  4   force =     0.00089188    0.00467481    0.00044286
     atom  128 type  4   force =    -0.00450172   -0.00156900    0.00044131
     atom  129 type  4   force =     0.00359350   -0.00310081    0.00044988
     atom  130 type  4   force =     0.00089206   -0.00468311   -0.00044131
     atom  131 type  4   force =     0.00360256    0.00310980   -0.00044286
     atom  132 type  4   force =    -0.00448213    0.00156166   -0.00044988
     atom  133 type  4   force =    -0.00208058    0.00309501   -0.00031968
     atom  134 type  4   force =    -0.00163580   -0.00335192   -0.00031968
     atom  135 type  4   force =     0.00372013    0.00025376   -0.00032255
     atom  136 type  4   force =    -0.00208495   -0.00309260    0.00031968
     atom  137 type  4   force =     0.00372065   -0.00025433    0.00031968
     atom  138 type  4   force =    -0.00164030    0.00334861    0.00032255
     atom  139 type  4   force =     0.00210352   -0.00078867    0.00083768
     atom  140 type  4   force =    -0.00036880    0.00221275    0.00083721
     atom  141 type  4   force =    -0.00173531   -0.00143034    0.00083925
     atom  142 type  4   force =     0.00210070    0.00078699   -0.00083721
     atom  143 type  4   force =    -0.00173477    0.00142736   -0.00083768
     atom  144 type  4   force =    -0.00037105   -0.00221800   -0.00083925
     atom  145 type  4   force =    -0.00091906   -0.00154818    0.00072765
     atom  146 type  4   force =     0.00179886   -0.00002163    0.00072765
     atom  147 type  4   force =    -0.00088007    0.00156717    0.00072469
     atom  148 type  4   force =    -0.00091816    0.00154704   -0.00072765
     atom  149 type  4   force =    -0.00088123   -0.00157002   -0.00072765
     atom  150 type  4   force =     0.00179725    0.00002142   -0.00072469
     atom  151 type  4   force =     0.00054681   -0.00169659   -0.00025889
     atom  152 type  4   force =     0.00119507    0.00131802   -0.00025871
     atom  153 type  4   force =    -0.00173927    0.00037929   -0.00025428
     atom  154 type  4   force =     0.00054390    0.00169397    0.00025871
     atom  155 type  4   force =    -0.00174269   -0.00037474    0.00025889
     atom  156 type  4   force =     0.00119811   -0.00131661    0.00025428
     atom  157 type  4   force =    -0.00037473    0.00133526   -0.00001416
     atom  158 type  4   force =    -0.00096768   -0.00099230   -0.00002053
     atom  159 type  4   force =     0.00134646   -0.00034655   -0.00001367
     atom  160 type  4   force =    -0.00037552   -0.00133418    0.00002053
     atom  161 type  4   force =     0.00134374    0.00034311    0.00001416
     atom  162 type  4   force =    -0.00097335    0.00099280    0.00001367
     atom  163 type  4   force =    -0.00085896    0.00222998    0.00128388
     atom  164 type  4   force =    -0.00150505   -0.00185292    0.00128565
     atom  165 type  4   force =     0.00234317   -0.00035122    0.00129905
     atom  166 type  4   force =    -0.00085215   -0.00222987   -0.00128565
     atom  167 type  4   force =     0.00236070    0.00037111   -0.00128388
     atom  168 type  4   force =    -0.00147575    0.00185363   -0.00129905
     atom  169 type  4   force =    -0.00311581   -0.00129879   -0.00669194
     atom  170 type  4   force =     0.00268089   -0.00197680   -0.00681617
     atom  171 type  4   force =     0.00040429    0.00332267   -0.00669149
     atom  172 type  4   force =    -0.00305240    0.00133332    0.00681617
     atom  173 type  4   force =     0.00043312   -0.00334776    0.00669194
     atom  174 type  4   force =     0.00267537    0.00201146    0.00669149
     atom  175 type  4   force =    -0.00026754   -0.00218570   -0.00344634
     atom  176 type  4   force =     0.00201604    0.00083126   -0.00340442
     atom  177 type  4   force =    -0.00172872    0.00136208   -0.00359512
     atom  178 type  4   force =    -0.00028813    0.00216157    0.00340442
     atom  179 type  4   force =    -0.00175910   -0.00132454    0.00344634
     atom  180 type  4   force =     0.00204395   -0.00081608    0.00359512
     atom  181 type  4   force =     0.00413928    0.00133205    0.00526073
     atom  182 type  4   force =    -0.00327973    0.00311613    0.00517215
     atom  183 type  4   force =    -0.00098976   -0.00421889    0.00540077
     atom  184 type  4   force =     0.00433851   -0.00128226   -0.00517215
     atom  185 type  4   force =    -0.00091605    0.00425075   -0.00526073
     atom  186 type  4   force =    -0.00315879   -0.00296660   -0.00540077
     atom  187 type  4   force =     0.00058973    0.00215672    0.00356029
     atom  188 type  4   force =    -0.00227495   -0.00057447    0.00380299
     atom  189 type  4   force =     0.00159769   -0.00159946    0.00362619
     atom  190 type  4   force =     0.00063997   -0.00225740   -0.00380299
     atom  191 type  4   force =     0.00157291    0.00158908   -0.00356029
     atom  192 type  4   force =    -0.00218402    0.00058391   -0.00362619
     atom  193 type  4   force =     0.00266393    0.00192234   -0.00525524
     atom  194 type  4   force =    -0.00253817    0.00119848   -0.00560666
     atom  195 type  4   force =     0.00035952   -0.00331565   -0.00527640
     atom  196 type  4   force =     0.00230700   -0.00159888    0.00560666
     atom  197 type  4   force =     0.00033283    0.00326820    0.00525524
     atom  198 type  4   force =    -0.00305120   -0.00134647    0.00527640
     atom  199 type  4   force =    -0.00070631   -0.00007754    0.00005218
     atom  200 type  4   force =     0.00039350   -0.00057609    0.00010916
     atom  201 type  4   force =     0.00029690    0.00064351    0.00006582
     atom  202 type  4   force =    -0.00069566    0.00005273   -0.00010916
     atom  203 type  4   force =     0.00028601   -0.00065045   -0.00005218
     atom  204 type  4   force =     0.00040885    0.00057888   -0.00006582
     atom  205 type  5   force =    -0.00274593   -0.00165959    0.00813718
     atom  206 type  5   force =     0.00282304   -0.00154069    0.00814522
     atom  207 type  5   force =    -0.00007656    0.00314043    0.00815153
     atom  208 type  5   force =    -0.00274580    0.00167448   -0.00814522
     atom  209 type  5   force =    -0.00006428   -0.00320784   -0.00813718
     atom  210 type  5   force =     0.00275798    0.00150391   -0.00815153
     atom  211 type  5   force =    -0.00002452   -0.00022916   -0.00055008
     atom  212 type  5   force =     0.00019008    0.00010898   -0.00056261
     atom  213 type  5   force =    -0.00019534    0.00011803   -0.00055921
     atom  214 type  5   force =    -0.00000066    0.00021911    0.00056261
     atom  215 type  5   force =    -0.00018620   -0.00013581    0.00055008
     atom  216 type  5   force =     0.00019989   -0.00011015    0.00055921
     atom  217 type  4   force =    -0.00008966   -0.00015529    0.00000000
     atom  218 type  2   force =    -0.00012043   -0.00016987   -0.05384210
     atom  219 type  2   force =    -0.00008690   -0.00018923    0.05384210

     Total force =     0.093947     Total SCF correction =     0.000367

     BFGS Geometry Optimization
     Energy error            =      8.8E-03 Ry
     Gradient error          =      5.4E-02 Ry/Bohr

     number of scf cycles    =   1
     number of bfgs steps    =   0

     energy             new  =   -2938.0826808666 Ry

     new trust radius        =       0.0538425018 bohr
     new conv_thr            =       0.0000001000 Ry


ATOMIC_POSITIONS (angstrom)
Mg              10.2314513568        5.4294909318        5.8300554958
Mg              12.1358633443        6.1459690063        1.1572098230
Mg              10.5631686788        7.4370088956        3.4936357232
Mg              -0.7453663817       13.5829504561        5.8520501770
Mg              -0.4136486019       11.5754422584        1.1792045042
Mg               1.1590542924       12.8664768680        3.5156242768
O               11.4388069800        4.4604801858        0.1831924683
O               12.3713842878        7.6760490374        2.5196127275
O                9.1203299796        6.8758917056        4.8560286171
O                0.4619613233       14.5519575919        4.4896472725
O               -1.8565143361       12.1365375265        6.8260675317
O                1.3945319010       11.3363833061        2.1532313829
O               10.8176965205        5.4827202476        2.6562640021
O               11.7966503680        6.6270298472        4.9926824517
O               10.3161753401        6.9026673998        0.3198417945
O               -0.1591489847       13.5297138218        2.0165775483
O               -0.6606732440       12.1097601210        4.3529959979
O                0.8197976521       12.3854036143        6.6894182055
O               10.2357773875        4.0569106147        4.2798800332
O               13.3223947292        6.8359840737        6.6163012492
O                9.3723354488        8.1195275282        1.9434564836
O               -0.7410614968       14.9555243116        0.3929587508
O               -1.6045010405       10.8928985524        2.7293799668
O                2.3455493818       12.1764443554        5.0658035164
H               10.5668619251        1.7586815061        3.7768514302
H               15.1471760034        8.2718304262        6.1132713735
H                7.2164675625        8.9819256108        1.4404304991
H               -0.4099727168       17.2537544276        0.8959886265
H               -3.7603681012       10.0305116185        3.2324085698
H                4.1703419726       10.7406070402        5.5688295009
H                0.8055849072       18.9793801496        0.0620161640
H               -5.8625823522       10.2204025267        2.3984352783
H                5.0569984744        8.8250901108        4.7348556740
H               11.7824194011        0.0330560145        4.6108247217
H               16.0338329041       10.1873470693        6.9472438360
H                5.1142529894        8.7920342011        2.2744043260
H               11.8848420286        2.2053596293        6.0368603390
H               14.1013505513        9.1898961334        1.3640208782
H                6.9443117339        7.6171816822        3.7004396788
H                0.9080082340       16.8070758718        5.6452391218
H               -4.0325235508       11.3952549315        0.9723996610
H                3.1245169752        9.8225412144        3.3088203212
H                2.7233983396       15.5480759603        1.4787387717
H               -3.8498904585       13.5969294811        3.8151582888
H                1.1264931009        8.8798678055        6.1515790012
H               13.7002315734        3.4643618017        3.1941017112
H               12.1033295918       10.1325701269        5.5305212283
H                7.1269445514        5.4155055452        0.8576809988
H                3.6236128875       14.1521379966        5.8999966929
H               -3.0910818584       15.0745043521        1.2271576723
H               -0.5325284909        8.7982198045        3.5635642629
H               14.6004446476        4.8602967616        5.7821023277
H               10.4443045791       10.2142098124        1.1092633071
H                7.8857461043        3.9379267009        3.4456957371
H                6.0023723083       13.6433292082        5.6219185496
H               -3.8398252782       17.3889779581        0.9490805892
H               -2.1625438902        6.9925441397        3.2855058479
H               16.9792092967        5.3691027419        6.0601794108
H                8.8142835324       12.0198715061        1.3873414504
H                7.1369928072        1.6234541241        3.7237541521
H                5.4036108063       14.9014105704        4.5236458485
H               -4.6299941709       16.2414111415        6.8600876197
H               -0.7736487845        6.8820568671        2.1872415766
H               16.3804717273        4.1110129993        0.1491723803
H               10.2031947030       12.1303695157        2.4856141515
H                6.3468604694        2.7710289325        4.8220184234
H                5.0331436921       16.4266227133        1.3765042834
H               -5.7656008310       15.1579608218        3.7129281431
H                0.7324519463        6.4402924460        6.0493541632
H               16.0099795567        2.5858236232        3.2963318569
H               11.7093007221       12.5721416548        5.6327557166
H                5.2112308929        3.8544682156        0.9599058368
H                5.5859779354       15.1425254197        2.4595567644
H               -4.9299850213       16.2787614527        4.7959537752
H               -0.6560017630        6.6035518925        0.1231089023
H               16.5628134708        3.8698884575        2.2133062248
H               10.3208227232       12.4088615068        4.5497032356
H                6.0468445757        2.7336617546        6.8861510977
H                7.2649552460       14.3970473620        0.8076968524
H               -5.1239067295       18.1055480337        3.1441507462
H               -2.1410867091        5.5222696772        5.4805397789
H               18.2418179114        4.6153406226        3.8651092538
H                8.8357311320       13.4901594814        6.2015631476
H                5.8529691815        0.9068993568        1.5287202211
H                7.4967338252       16.1186302411        1.1009849720
H               -6.7306586692       17.4454593182        3.4375718833
H               -0.7660963088        4.4609253897        5.7739190141
H               18.4735402849        2.8938082674        3.5716881167
H               10.2107763505       14.5516770586        5.9082750280
H                4.2463228664        1.5670038296        1.2353409859
H                6.2503319883       16.6749980369        6.0194483100
H               -6.5892809671       16.0878891482        1.3465649426
H                0.3389951134        5.2620396082        3.6829950091
H               17.2271611791        2.3374598639        5.6626950574
H               11.3158059139       13.7504453025        0.9898116900
H                4.3875624198        2.9245981840        3.3262649909
H                7.5686571448       15.5580767698        5.6416736271
H               -6.2811249964       17.7879201190        0.9688065061
H               -1.2874924100        4.6788485184        3.3051734606
H               18.5453532018        3.4543462482        6.0404534939
H                9.6893611442       14.3336877448        1.3675863729
H                4.6957478825        1.2244231250        3.7040865394
H                2.3398998561       13.9784816811        0.7872698169
H               -2.2988400303       14.0496164072        3.1236849404
H               -0.0410655403        9.9967812130        5.4601090520
H               13.3167447372        5.0339543381        3.8855750596
H               10.9357703141        9.0156535581        6.2219901831
H                8.6779992566        4.9628268053        1.5491509480
H                4.8356498720       13.4137247720        0.8697404100
H               -3.0576159269       16.4933682548        3.2061618283
H               -1.7780321824        8.1177811540        5.5425765387
H               15.8124838661        5.5987110597        3.8030981717
H                9.1988014759       10.8946580190        6.1395195900
H                7.9192207929        2.5190695382        1.4666834613
H                3.6972975644       13.1540538913        2.8552902920
H               -2.2635521186       15.6373600477        5.1917113526
H               -1.4337393833        9.2334583533        0.5188697528
H               14.6741271088        5.8583863863        1.8175486474
H                9.5430960505        9.7789805617        4.1539697080
H                8.7132791905        3.3750744483        6.4903902472
H                3.2889839598       14.6043496713        3.4789179818
H               -3.3153938280       14.5585993115        5.8153385326
H                0.0264152197        8.8619203936        1.1424957514
H               14.2658137613        4.4080843772        1.1939214674
H               11.0032458413       10.1505184974        3.5303420182
H                7.6614405773        4.4538364481        5.8667642486
C               11.3166009337        3.2781263887        0.7995002677
C               13.4564249531        8.1613985859        3.1359194493
C                8.1574704655        7.5729135963        5.4723439859
C                0.3397660293       15.7343051464        3.8733405507
C               -2.8193597374       11.4395270874        6.2097597323
C                2.4796003224       10.8510334519        1.5369160141
C               10.9509263548        3.1269020276        2.1843368046
C               13.7702324917        7.9203280417        4.5207568017
C                8.2093481369        7.9652041929        6.8571752877
C               -0.0259109555       15.8855351746        2.4885031983
C               -2.7674865863       11.0472314320        4.8249231954
C                2.7933951089       11.0921061315        0.1520847123
C               10.8698263080        1.8299098580        2.7399424597
C               14.9340083948        8.4985890511        5.0763622095
C                7.1266699818        8.6839337026        0.4035232887
C               -0.1070101828       17.1825251758        1.9328977905
C               -3.8501647303       10.3285006465        4.2693175403
C                3.9571722004       10.5138440999        6.6057367113
C               11.1640525342        0.6706999772        2.0156874894
C               15.7907997574        9.3330032242        4.3521074930
C                5.9756525635        9.0087313298        6.6885259256
C                0.1872180071       18.3417353480        2.6571525070
C               -5.0011830484       10.0037030924        4.9935725106
C                4.8139639058        9.6794325890        0.3207340744
C               11.5177334852        0.8358395102        0.6526353862
C               15.4709445817        9.5567280099        2.9890554784
C                5.9418283181        8.6198687895        5.3254778273
C                0.5408969428       18.1765950332        4.0202045216
C               -5.0350084932       10.3925695473        6.3566246138
C                4.4941111900        9.4557086630        1.6837821727
C               11.5809114676        2.0918844191        0.0628655699
C               14.3515899223        8.9834212460        2.3992821990
C                6.9980057573        7.9371283647        4.7357058259
C                0.6040760508       16.9205520804        4.6099778010
C               -3.9788306851       11.0753057396        6.9463944301
C                3.3747519184       10.0290149440        2.2735541741
C               10.6525638235        4.2793583881        3.0905013951
C               12.9213532610        7.0857148450        5.4269223291
C                9.3565768840        7.6473763700        0.7540894215
C               -0.3242675707       14.7330775978        1.5823376709
C               -1.6202488357       11.3650700806        3.9187586049
C                1.9445337667       11.9267214590        6.2551705785
C                4.4492382420       14.4487640159        0.7473608001
C               -3.7607817618       15.6412454571        3.0837150605
C               -0.6884726866        7.9348872953        5.4202010377
C               15.4261067936        4.5636901847        3.9255449395
C               10.2883775701       11.0775353530        6.2618991999
C                7.2160503172        3.3712088112        1.5890589623
C                5.5903604908       14.6703599342        5.5751640873
C               -4.5232552396       16.5186343421        0.9023462723
C               -1.0670947840        6.8358816201        3.2386653569
C               16.5671845959        4.3420632258        6.1069137277
C                9.9097241403       12.1765741684        1.4340959127
C                6.4535945322        2.4938096188        3.7705946431
C                6.6151846576       15.6523125189        6.1697410846
C               -5.8860874952       16.9153021077        1.4968542073
C               -0.7291660636        5.4573785611        3.8333951922
C               17.5921250855        3.3601497541        5.5124057927
C               10.2477079405       13.5550742236        0.8395189154
C                5.0908115038        2.0972129459        3.1758648078
C                5.4541525439       15.4143329671        1.4079415791
C               -5.0995046350       16.0287004841        3.7444900133
C               -0.3546942229        6.5818292931        6.0808164526
C               16.4310141263        3.5980496814        3.2647699867
C               10.6221276600       12.4306011426        5.6013184209
C                5.8773784826        2.9837404389        0.9284435474
C                6.8078157720       15.3856902840        0.6696173591
C               -5.7512288515       17.2152541936        3.0058513932
C               -1.0563301191        5.4238242717        5.3424461614
C               17.7844618900        3.6269168084        4.0034086068
C                9.9204907546       13.5885865448        6.3396426409
C                5.2253346645        1.7971034178        1.6668138386
C                3.0598580666       14.5108204413        1.4078374834
C               -3.1198473511       14.4069388421        3.7442876338
C                0.0599808617        9.1071072162        6.0806847008
C               14.0366987037        4.5016023591        3.2649723662
C               11.0368100987        9.9053250383        5.6014225166
C                7.8569957734        4.6054985580        0.9285752992
N                4.3094793273       14.7826215855        6.3169156610
N               -3.9800237007       15.3532477092        1.6440799154
N               -0.3294553334        7.8889708905        3.9805032525
N               15.2863143970        4.2298222221        5.3651800846
N               10.6473861639       11.1234293673        0.6923443390
N                6.9967768677        3.6591687570        3.0287567475
N                3.0096156468       13.9093768555        2.7855392995
N               -2.5738574524       14.6641593772        5.1219526652
N               -0.4357739516        9.4513344841        0.4491144659
N               13.9864632720        5.1030537490        1.8873073348
N               10.5410658843        9.5610920335        4.2237207005
N                8.4029827388        4.3482759296        6.5601455341
C               10.7046346214       18.5409710407        3.5046300000
O               10.7046183376       18.5409633240        2.3161379882
O               10.7046360804       18.5409530802        4.6931220118



     Writing config-only to output data dir ./tmp/c_MOF_CO2_free.save/ :
     XML data file
     NEW-OLD atomic charge density approx. for the potential

     Check: negative core charge=   -0.000001

     negative rho (up, down):  2.643E-07 0.000E+00

     total cpu time spent up to now is     1313.5 secs

     per-process dynamical memory:   378.3 Mb

     Self-consistent Calculation

     iteration #  1     ecut=    60.00 Ry     beta= 0.30
     Davidson diagonalization with overlap
     ethr =  1.00E-06,  avg # of iterations =  6.0

     negative rho (up, down):  2.553E-07 0.000E+00

     total cpu time spent up to now is     1418.4 secs

     total energy              =   -2938.08377993 Ry
     estimated scf accuracy    <       0.00346331 Ry

     iteration #  2     ecut=    60.00 Ry     beta= 0.30
     Davidson diagonalization with overlap
     ethr =  5.68E-07,  avg # of iterations =  4.0

     negative rho (up, down):  2.560E-07 0.000E+00

     total cpu time spent up to now is     1482.5 secs

     total energy              =   -2938.08353688 Ry
     estimated scf accuracy    <       0.00083754 Ry

     iteration #  3     ecut=    60.00 Ry     beta= 0.30
     Davidson diagonalization with overlap
     ethr =  1.37E-07,  avg # of iterations =  4.0

     negative rho (up, down):  2.604E-07 0.000E+00

     total cpu time spent up to now is     1553.0 secs

     total energy              =   -2938.08363087 Ry
     estimated scf accuracy    <       0.00006091 Ry

     iteration #  4     ecut=    60.00 Ry     beta= 0.30
     Davidson diagonalization with overlap
     ethr =  9.99E-09,  avg # of iterations =  4.0

     negative rho (up, down):  2.657E-07 0.000E+00

     total cpu time spent up to now is     1627.8 secs

     total energy              =   -2938.08362596 Ry
     estimated scf accuracy    <       0.00001961 Ry

     iteration #  5     ecut=    60.00 Ry     beta= 0.30
     Davidson diagonalization with overlap
     ethr =  3.21E-09,  avg # of iterations =  4.0

     negative rho (up, down):  2.652E-07 0.000E+00

     total cpu time spent up to now is     1704.4 secs

     total energy              =   -2938.08362919 Ry
     estimated scf accuracy    <       0.00000143 Ry

     iteration #  6     ecut=    60.00 Ry     beta= 0.30
     Davidson diagonalization with overlap
     ethr =  2.35E-10,  avg # of iterations =  4.5

     negative rho (up, down):  2.644E-07 0.000E+00

     total cpu time spent up to now is     1791.1 secs

     total energy              =   -2938.08362955 Ry
     estimated scf accuracy    <       0.00000059 Ry

     iteration #  7     ecut=    60.00 Ry     beta= 0.30
     Davidson diagonalization with overlap
     ethr =  9.69E-11,  avg # of iterations =  8.0

     negative rho (up, down):  2.639E-07 0.000E+00

     total cpu time spent up to now is     1888.7 secs

     total energy              =   -2938.08362971 Ry
     estimated scf accuracy    <       0.00000024 Ry

     iteration #  8     ecut=    60.00 Ry     beta= 0.30
     Davidson diagonalization with overlap
     ethr =  3.99E-11,  avg # of iterations =  6.0

     negative rho (up, down):  2.623E-07 0.000E+00

     total cpu time spent up to now is     1968.3 secs

     End of self-consistent calculation

          k = 0.0000 0.0000 0.0000 (154911 PWs)   bands (ev):

   -24.8985 -23.9490 -22.3859 -22.3859 -22.2432 -22.2432 -22.2427 -22.2427
   -20.4529 -20.4526 -20.4385 -20.4381 -20.4379 -20.4375 -19.9585 -19.9582
   -19.9423 -19.9422 -19.9419 -19.9418 -18.6420 -18.6411 -18.6403 -18.6395
   -18.6373 -18.6361 -18.0636 -18.0625 -18.0619 -18.0608 -18.0589 -18.0574
   -17.0157 -17.0073 -17.0068 -16.3690 -16.3479 -16.3474 -15.3368 -15.3367
   -15.3273 -15.2744 -15.2743 -15.2653 -14.7222 -14.7173 -14.7140 -14.7134
   -14.7129 -14.7086 -14.5947 -14.5379 -14.5375 -14.4276 -14.4187 -14.4182
   -14.1949 -14.1945 -14.1845 -13.0363 -12.9608 -12.9603 -12.6716 -12.6695
   -12.6630 -12.6570 -12.6553 -12.6508 -11.6287 -11.6277 -11.6203 -11.5860
   -11.5850 -11.5812 -11.5636 -11.5604 -11.5454 -11.1770 -11.1765 -11.1454
   -10.7172 -10.7149 -10.7084 -10.7024 -10.6911 -10.6882 -10.6761 -10.5882
   -10.5877 -10.2714 -10.2709 -10.2270  -9.9225  -9.7346  -9.6840  -9.6801
    -9.6747  -9.6394  -9.6356  -9.6304  -9.4535  -9.4531  -9.3858  -8.8797
    -8.8793  -8.7242  -8.6911  -8.6841  -8.6748  -8.6727  -8.6585  -8.6563
    -8.5205  -8.5197  -8.5098  -8.5093  -8.4114  -8.3637  -8.3608  -8.3381
    -8.2999  -8.2882  -8.2853  -8.0126  -8.0125  -7.8237  -7.6839  -7.6836
    -7.6815  -7.6029  -7.6025  -7.5369  -7.4509  -7.4508  -7.4000  -7.3499
    -7.3457  -7.3445  -7.3195  -7.3189  -7.2295  -7.2209  -7.2205  -7.2154
    -7.1646  -7.1645  -7.0689  -7.0653  -7.0613  -7.0604  -6.9923  -6.9920
    -6.9017  -6.8992  -6.8966  -6.8388  -6.8368  -6.6923  -6.6370  -6.5831
    -6.5827  -6.5321  -6.5140  -6.5104  -6.4999  -6.4875  -6.4859  -6.4533
    -6.4506  -6.4305  -6.4092  -6.3087  -6.2833  -6.1811  -6.1798  -6.1651
    -6.1645  -6.0841  -6.0822  -6.0682  -6.0524  -6.0520  -6.0257  -5.9959
    -5.9957  -5.9586  -5.9156  -5.9122  -5.8940  -5.6446  -5.6304  -5.6268
    -5.6241  -5.6191  -5.6159  -5.5200  -5.5195  -5.4105  -5.4011  -5.4002
    -5.3961  -5.3187  -5.3184  -5.2968  -5.2564  -5.2338  -5.2316  -5.2131
    -5.2096  -5.2075  -5.1026  -5.1013  -5.0924  -5.0690  -5.0658  -5.0229
    -5.0188  -5.0146  -4.9090  -4.9085  -4.8944  -4.7500  -4.7496  -4.6424
    -4.4369  -4.4354  -4.3770  -4.3746  -4.3558  -4.3433  -4.2807  -4.2688
    -4.2673  -4.2052  -4.2045  -4.1640  -4.1326  -4.1290  -4.1220  -4.1070
    -4.0823  -4.0768  -3.9475  -3.9448  -3.9343  -3.9290  -3.8938  -3.8897
    -3.8499  -3.8464  -3.7871  -3.7850  -3.7274  -3.7242  -3.7226  -3.6120
    -3.5869  -3.5856  -3.3861  -3.3855  -3.3712  -3.3708  -3.3432  -3.0812
    -3.0812  -3.0182  -2.9977  -2.9867  -2.9865  -2.7660  -2.7646  -2.6931
    -2.6918  -2.5546  -2.5501  -2.4573  -2.4571  -2.4504  -2.4502  -2.3906
    -2.3828  -2.1230  -2.1226  -2.1108  -2.1104  -2.0857  -2.0750  -1.9147
    -1.9144  -1.8855  -1.8852  -1.7380  -1.7356  -1.5182  -1.5177  -1.4464
    -1.3075  -1.3047  -1.3019  -1.2667  -1.2660  -1.2626  -0.6129  -0.6125
    -0.5351

          k = 0.0000 0.0000-1.5660 (154844 PWs)   bands (ev):

   -24.8983 -23.9492 -22.3262 -22.3262 -22.3258 -22.3257 -22.2116 -22.2115
   -20.4847 -20.4844 -20.4842 -20.4839 -20.4244 -20.4239 -19.9375 -19.9371
   -19.9370 -19.9367 -19.9141 -19.9139 -18.6050 -18.6039 -18.6023 -18.6012
   -18.5998 -18.5986 -18.1156 -18.1143 -18.1122 -18.1109 -18.1098 -18.1085
   -16.9970 -16.9968 -16.9961 -16.3574 -16.3570 -16.3545 -15.3319 -15.3319
   -15.3224 -15.2696 -15.2695 -15.2605 -14.7142 -14.7140 -14.7104 -14.7103
   -14.7095 -14.7057 -14.5537 -14.5533 -14.5385 -14.4706 -14.4702 -14.4654
   -14.1863 -14.1858 -14.1793 -12.9992 -12.9988 -12.9693 -12.6802 -12.6753
   -12.6723 -12.6672 -12.6618 -12.6589 -11.5954 -11.5949 -11.5508 -11.5482
   -11.5464 -11.5392 -11.4932 -11.4893 -11.4827 -11.1320 -11.1316 -11.0714
   -10.7484 -10.7467 -10.7421 -10.7225 -10.7203 -10.7158 -10.6010 -10.6006
   -10.5298 -10.2752 -10.2749 -10.2407  -9.9065  -9.6982  -9.6953  -9.6858
    -9.6567  -9.6555  -9.6450  -9.6433  -9.6398  -9.4776  -9.2051  -9.2047
    -8.8234  -8.7633  -8.7622  -8.7601  -8.7589  -8.7463  -8.7253  -8.7194
    -8.5193  -8.5187  -8.4453  -8.3451  -8.3448  -8.1342  -8.1315  -8.1179
    -8.0537  -8.0517  -8.0452  -7.9523  -7.9038  -7.9035  -7.8377  -7.8372
    -7.7707  -7.5935  -7.5056  -7.5052  -7.4508  -7.4448  -7.4441  -7.4106
    -7.3936  -7.3916  -7.3201  -7.3141  -7.2695  -7.2694  -7.2559  -7.1948
    -7.1922  -7.1746  -7.1526  -7.1493  -7.1099  -7.1079  -6.9436  -6.9115
    -6.8575  -6.8571  -6.7600  -6.7578  -6.7270  -6.6383  -6.6361  -6.6242
    -6.5735  -6.5727  -6.5476  -6.5025  -6.4759  -6.4756  -6.4483  -6.4458
    -6.3970  -6.3963  -6.3864  -6.3633  -6.3072  -6.3060  -6.2803  -6.2802
    -6.2582  -6.2579  -6.2290  -6.1864  -6.1825  -6.1819  -6.1228  -6.1107
    -6.1071  -6.1066  -6.1040  -6.0877  -6.0232  -6.0115  -5.9633  -5.9590
    -5.8440  -5.8131  -5.8080  -5.5488  -5.5483  -5.5338  -5.4863  -5.4021
    -5.4013  -5.3688  -5.3673  -5.3147  -5.2870  -5.2854  -5.2771  -5.2334
    -5.2050  -5.2038  -5.1066  -5.1056  -5.0611  -5.0595  -5.0552  -5.0115
    -5.0095  -5.0042  -4.7275  -4.7271  -4.7204  -4.6720  -4.6717  -4.5926
    -4.5063  -4.4114  -4.3858  -4.3852  -4.3641  -4.3639  -4.2576  -4.2576
    -4.2554  -4.1257  -4.1227  -4.1142  -4.0927  -4.0898  -4.0688  -4.0634
    -4.0591  -4.0576  -3.9539  -3.9185  -3.9141  -3.8814  -3.8785  -3.8118
    -3.8061  -3.6802  -3.5916  -3.5625  -3.5620  -3.4246  -3.4240  -3.4167
    -3.4114  -3.4099  -3.3984  -3.3549  -3.3540  -3.2790  -3.2786  -3.0160
    -2.9325  -2.9214  -2.9212  -2.8964  -2.8963  -2.8053  -2.7606  -2.7605
    -2.7237  -2.7233  -2.7082  -2.4334  -2.4287  -2.3964  -2.3962  -2.3890
    -2.3889  -2.1859  -2.1519  -2.1514  -2.1081  -2.0651  -2.0647  -1.9295
    -1.9292  -1.9159  -1.9157  -1.9087  -1.8749  -1.5025  -1.5021  -1.4443
    -1.3013  -1.2993  -1.2909  -1.2675  -1.2657  -1.2604  -0.5908  -0.5725
    -0.5721

     highest occupied level (ev):    -0.5351

!    total energy              =   -2938.08362980 Ry
     estimated scf accuracy    <       0.00000003 Ry

     The total energy is the sum of the following terms:
     one-electron contribution =   -5750.95739633 Ry
     hartree contribution      =    3070.87158405 Ry
     xc contribution           =    -693.72411758 Ry
     ewald contribution        =    1355.61676694 Ry
     one-center paw contrib.   =    -919.89046688 Ry

     convergence has been achieved in   8 iterations

     negative rho (up, down):  2.623E-07 0.000E+00

     Forces acting on atoms (cartesian axes, Ry/au):

     atom    1 type  1   force =    -0.00075342   -0.00080437   -0.00076948
     atom    2 type  1   force =     0.00106636   -0.00022735   -0.00077794
     atom    3 type  1   force =    -0.00033976    0.00107496   -0.00076680
     atom    4 type  1   force =    -0.00073008    0.00080982    0.00077794
     atom    5 type  1   force =    -0.00031989   -0.00105467    0.00076948
     atom    6 type  1   force =     0.00110082    0.00024324    0.00076680
     atom    7 type  2   force =     0.00211825    0.00199046   -0.00233631
     atom    8 type  2   force =    -0.00277954    0.00082470   -0.00233761
     atom    9 type  2   force =     0.00065744   -0.00282432   -0.00233307
     atom   10 type  2   force =     0.00210398   -0.00199480    0.00233761
     atom   11 type  2   force =     0.00066467    0.00282969    0.00233631
     atom   12 type  2   force =    -0.00277466   -0.00084280    0.00233307
     atom   13 type  2   force =     0.00014557    0.00308155   -0.00156608
     atom   14 type  2   force =    -0.00273347   -0.00142555   -0.00156859
     atom   15 type  2   force =     0.00257940   -0.00165092   -0.00155564
     atom   16 type  2   force =     0.00013217   -0.00308003    0.00156859
     atom   17 type  2   force =     0.00259592    0.00166684    0.00156608
     atom   18 type  2   force =    -0.00271944    0.00140837    0.00155564
     atom   19 type  2   force =    -0.00110436    0.00036648    0.00265770
     atom   20 type  2   force =     0.00023467   -0.00114320    0.00265803
     atom   21 type  2   force =     0.00086660    0.00076658    0.00266833
     atom   22 type  2   force =    -0.00110737   -0.00036837   -0.00265803
     atom   23 type  2   force =     0.00086956   -0.00077316   -0.00265770
     atom   24 type  2   force =     0.00023058    0.00113379   -0.00266833
     atom   25 type  3   force =     0.00047274   -0.00005842   -0.00011777
     atom   26 type  3   force =    -0.00018606    0.00043891   -0.00011756
     atom   27 type  3   force =    -0.00028594   -0.00037767   -0.00011832
     atom   28 type  3   force =     0.00047313    0.00005832    0.00011756
     atom   29 type  3   force =    -0.00028697    0.00038019    0.00011777
     atom   30 type  3   force =    -0.00018410   -0.00043647    0.00011832
     atom   31 type  3   force =     0.00032589   -0.00072015   -0.00033890
     atom   32 type  3   force =     0.00046044    0.00064034   -0.00033897
     atom   33 type  3   force =    -0.00078350    0.00007997   -0.00033800
     atom   34 type  3   force =     0.00032433    0.00071892    0.00033897
     atom   35 type  3   force =    -0.00078661   -0.00007784    0.00033890
     atom   36 type  3   force =     0.00046101   -0.00063855    0.00033800
     atom   37 type  3   force =    -0.00101946    0.00045158    0.00032526
     atom   38 type  3   force =     0.00011660   -0.00110638    0.00032225
     atom   39 type  3   force =     0.00090184    0.00065807    0.00032521
     atom   40 type  3   force =    -0.00101645   -0.00045221   -0.00032225
     atom   41 type  3   force =     0.00090081   -0.00065708   -0.00032526
     atom   42 type  3   force =     0.00011899    0.00111005   -0.00032521
     atom   43 type  3   force =    -0.00005054   -0.00016019   -0.00008407
     atom   44 type  3   force =     0.00015479    0.00002829   -0.00008015
     atom   45 type  3   force =    -0.00010737    0.00012338   -0.00008198
     atom   46 type  3   force =    -0.00005289    0.00014819    0.00008015
     atom   47 type  3   force =    -0.00011346   -0.00012387    0.00008407
     atom   48 type  3   force =     0.00016053   -0.00003129    0.00008198
     atom   49 type  3   force =    -0.00033026    0.00024708    0.00009021
     atom   50 type  3   force =    -0.00004728   -0.00041485    0.00008908
     atom   51 type  3   force =     0.00039790    0.00011516    0.00009448
     atom   52 type  3   force =    -0.00033563   -0.00024837   -0.00008908
     atom   53 type  3   force =     0.00037911   -0.00016247   -0.00009021
     atom   54 type  3   force =    -0.00009922    0.00040217   -0.00009448
     atom   55 type  3   force =    -0.00024975   -0.00044620   -0.00009368
     atom   56 type  3   force =     0.00050262   -0.00000537   -0.00008871
     atom   57 type  3   force =    -0.00024524    0.00041395   -0.00010011
     atom   58 type  3   force =    -0.00025596    0.00043260    0.00008871
     atom   59 type  3   force =    -0.00026155   -0.00043939    0.00009368
     atom   60 type  3   force =     0.00048111   -0.00000541    0.00010011
     atom   61 type  3   force =    -0.00059333    0.00029410    0.00136723
     atom   62 type  3   force =     0.00000776   -0.00064120    0.00139656
     atom   63 type  3   force =     0.00057068    0.00034943    0.00129575
     atom   64 type  3   force =    -0.00055918   -0.00031388   -0.00139656
     atom   65 type  3   force =     0.00055136   -0.00036679   -0.00136723
     atom   66 type  3   force =     0.00001727    0.00066893   -0.00129575
     atom   67 type  3   force =    -0.00015729    0.00069635    0.00002875
     atom   68 type  3   force =    -0.00054649   -0.00050181    0.00004806
     atom   69 type  3   force =     0.00068577   -0.00021668    0.00004854
     atom   70 type  3   force =    -0.00016134   -0.00072418   -0.00004806
     atom   71 type  3   force =     0.00068171    0.00021196   -0.00002875
     atom   72 type  3   force =    -0.00053053    0.00048556   -0.00004854
     atom   73 type  3   force =     0.00177677    0.00023205   -0.00084835
     atom   74 type  3   force =    -0.00111509    0.00145430   -0.00075285
     atom   75 type  3   force =    -0.00068632   -0.00169510   -0.00083469
     atom   76 type  3   force =     0.00181700   -0.00023854    0.00075285
     atom   77 type  3   force =    -0.00068742    0.00165475    0.00084835
     atom   78 type  3   force =    -0.00112484   -0.00144192    0.00083469
     atom   79 type  3   force =     0.00002950    0.00076357   -0.00032860
     atom   80 type  3   force =    -0.00067734   -0.00031388   -0.00028967
     atom   81 type  3   force =     0.00067252   -0.00041392   -0.00032093
     atom   82 type  3   force =     0.00006685   -0.00074354    0.00028967
     atom   83 type  3   force =     0.00064652    0.00040734    0.00032860
     atom   84 type  3   force =    -0.00069472    0.00037546    0.00032093
     atom   85 type  3   force =     0.00048006    0.00028979    0.00039596
     atom   86 type  3   force =    -0.00013862    0.00016170    0.00051114
     atom   87 type  3   force =    -0.00001423   -0.00040179    0.00059613
     atom   88 type  3   force =     0.00020934   -0.00003920   -0.00051114
     atom   89 type  3   force =     0.00001094    0.00056064   -0.00039596
     atom   90 type  3   force =    -0.00034085   -0.00021322   -0.00059613
     atom   91 type  3   force =     0.00059417   -0.00031719    0.00025483
     atom   92 type  3   force =     0.00003221    0.00072523    0.00018959
     atom   93 type  3   force =    -0.00060272   -0.00026371    0.00021791
     atom   94 type  3   force =     0.00061196    0.00039051   -0.00018959
     atom   95 type  3   force =    -0.00057178    0.00035597   -0.00025483
     atom   96 type  3   force =     0.00007298   -0.00065382   -0.00021791
     atom   97 type  3   force =     0.00052194    0.00023929   -0.00062851
     atom   98 type  3   force =    -0.00044463    0.00031220   -0.00077185
     atom   99 type  3   force =    -0.00008484   -0.00040025   -0.00074686
     atom  100 type  3   force =     0.00049269   -0.00022896    0.00077185
     atom  101 type  3   force =    -0.00005374    0.00057166    0.00062851
     atom  102 type  3   force =    -0.00030421   -0.00027360    0.00074686
     atom  103 type  3   force =    -0.00046374    0.00033855   -0.00008087
     atom  104 type  3   force =    -0.00008638   -0.00055538   -0.00006891
     atom  105 type  3   force =     0.00052503    0.00022380   -0.00007743
     atom  106 type  3   force =    -0.00043778   -0.00035250    0.00006891
     atom  107 type  3   force =     0.00052506   -0.00023234    0.00008087
     atom  108 type  3   force =    -0.00006870    0.00056659    0.00007743
     atom  109 type  3   force =    -0.00018821    0.00021744   -0.00012976
     atom  110 type  3   force =    -0.00008766   -0.00025209   -0.00013358
     atom  111 type  3   force =     0.00027297    0.00005840   -0.00013359
     atom  112 type  3   force =    -0.00017449   -0.00020196    0.00013358
     atom  113 type  3   force =     0.00028242   -0.00005428    0.00012976
     atom  114 type  3   force =    -0.00008591    0.00026560    0.00013359
     atom  115 type  3   force =     0.00004004   -0.00010576   -0.00022460
     atom  116 type  3   force =     0.00008397    0.00008894   -0.00022243
     atom  117 type  3   force =    -0.00012076    0.00002138   -0.00022524
     atom  118 type  3   force =     0.00003504    0.00011719    0.00022243
     atom  119 type  3   force =    -0.00011162   -0.00001820    0.00022460
     atom  120 type  3   force =     0.00007889   -0.00009390    0.00022524
     atom  121 type  3   force =    -0.00012965   -0.00025811   -0.00035947
     atom  122 type  3   force =     0.00028986    0.00000943   -0.00035299
     atom  123 type  3   force =    -0.00015244    0.00024644   -0.00036121
     atom  124 type  3   force =    -0.00013677    0.00025574    0.00035299
     atom  125 type  3   force =    -0.00015870   -0.00024133    0.00035947
     atom  126 type  3   force =     0.00028964   -0.00000880    0.00036121
     atom  127 type  4   force =     0.00017103   -0.00312031    0.00223783
     atom  128 type  4   force =     0.00262441    0.00170987    0.00223799
     atom  129 type  4   force =    -0.00277297    0.00140328    0.00222940
     atom  130 type  4   force =     0.00016859    0.00312775   -0.00223799
     atom  131 type  4   force =    -0.00278778   -0.00141204   -0.00223783
     atom  132 type  4   force =     0.00260176   -0.00169982   -0.00222940
     atom  133 type  4   force =    -0.00132999   -0.00017933    0.00069718
     atom  134 type  4   force =     0.00081699   -0.00106455    0.00069629
     atom  135 type  4   force =     0.00050602    0.00124496    0.00070162
     atom  136 type  4   force =    -0.00133042    0.00017526   -0.00069629
     atom  137 type  4   force =     0.00050969   -0.00124147   -0.00069718
     atom  138 type  4   force =     0.00082515    0.00106071   -0.00070162
     atom  139 type  4   force =     0.00169302    0.00159152   -0.00147056
     atom  140 type  4   force =    -0.00222202    0.00067053   -0.00147072
     atom  141 type  4   force =     0.00052975   -0.00226419   -0.00147190
     atom  142 type  4   force =     0.00169171   -0.00158906    0.00147072
     atom  143 type  4   force =     0.00053178    0.00226196    0.00147056
     atom  144 type  4   force =    -0.00222572   -0.00067332    0.00147190
     atom  145 type  4   force =    -0.00026780    0.00043170   -0.00053590
     atom  146 type  4   force =    -0.00024148   -0.00044916   -0.00053500
     atom  147 type  4   force =     0.00050766    0.00001637   -0.00053155
     atom  148 type  4   force =    -0.00026825   -0.00043371    0.00053500
     atom  149 type  4   force =     0.00050776   -0.00001608    0.00053590
     atom  150 type  4   force =    -0.00023966    0.00044783    0.00053155
     atom  151 type  4   force =    -0.00024891    0.00217089    0.00031321
     atom  152 type  4   force =    -0.00175485   -0.00130192    0.00031096
     atom  153 type  4   force =     0.00200603   -0.00086879    0.00030934
     atom  154 type  4   force =    -0.00025007   -0.00217070   -0.00031096
     atom  155 type  4   force =     0.00200450    0.00086988   -0.00031321
     atom  156 type  4   force =    -0.00175541    0.00130288   -0.00030934
     atom  157 type  4   force =    -0.00082109   -0.00074876    0.00283475
     atom  158 type  4   force =     0.00105629   -0.00034109    0.00283761
     atom  159 type  4   force =    -0.00023838    0.00108546    0.00283666
     atom  160 type  4   force =    -0.00082354    0.00074423   -0.00283761
     atom  161 type  4   force =    -0.00023790   -0.00108547   -0.00283475
     atom  162 type  4   force =     0.00105923    0.00033629   -0.00283666
     atom  163 type  4   force =    -0.00035035   -0.00522029   -0.00096439
     atom  164 type  4   force =     0.00469586    0.00230475   -0.00096357
     atom  165 type  4   force =    -0.00431951    0.00289041   -0.00098747
     atom  166 type  4   force =    -0.00035196    0.00521911    0.00096357
     atom  167 type  4   force =    -0.00434572   -0.00291356    0.00096439
     atom  168 type  4   force =     0.00466292   -0.00229561    0.00098747
     atom  169 type  4   force =    -0.00024169   -0.00003683    0.00147101
     atom  170 type  4   force =     0.00012814   -0.00023039    0.00153584
     atom  171 type  4   force =     0.00009027    0.00019852    0.00148498
     atom  172 type  4   force =    -0.00026360   -0.00000422   -0.00153584
     atom  173 type  4   force =     0.00008894   -0.00022772   -0.00147101
     atom  174 type  4   force =     0.00012679    0.00017743   -0.00148498
     atom  175 type  4   force =     0.00060742    0.00040738    0.00662623
     atom  176 type  4   force =    -0.00066204    0.00033661    0.00659292
     atom  177 type  4   force =     0.00002280   -0.00073704    0.00670611
     atom  178 type  4   force =     0.00062254   -0.00040504   -0.00659292
     atom  179 type  4   force =     0.00004909    0.00072973   -0.00662623
     atom  180 type  4   force =    -0.00064969   -0.00034877   -0.00670611
     atom  181 type  4   force =     0.00029768    0.00012791   -0.00074599
     atom  182 type  4   force =    -0.00015111    0.00002653   -0.00076884
     atom  183 type  4   force =     0.00000018   -0.00029832   -0.00077225
     atom  184 type  4   force =     0.00009853   -0.00011760    0.00076884
     atom  185 type  4   force =    -0.00003807    0.00032176    0.00074599
     atom  186 type  4   force =    -0.00025844   -0.00014901    0.00077225
     atom  187 type  4   force =     0.00012004    0.00026141   -0.00531588
     atom  188 type  4   force =    -0.00021394   -0.00005512   -0.00544698
     atom  189 type  4   force =     0.00015509   -0.00023526   -0.00535051
     atom  190 type  4   force =     0.00005923   -0.00021284    0.00544698
     atom  191 type  4   force =     0.00016636    0.00023466    0.00531588
     atom  192 type  4   force =    -0.00028128    0.00001668    0.00535051
     atom  193 type  4   force =     0.00086650    0.00024095    0.00063256
     atom  194 type  4   force =    -0.00081927    0.00062906    0.00070188
     atom  195 type  4   force =    -0.00026052   -0.00074741    0.00064191
     atom  196 type  4   force =     0.00095442   -0.00039498   -0.00070188
     atom  197 type  4   force =    -0.00022459    0.00087088   -0.00063256
     atom  198 type  4   force =    -0.00051701   -0.00059932   -0.00064191
     atom  199 type  4   force =    -0.00038751   -0.00036027   -0.00042028
     atom  200 type  4   force =     0.00051656   -0.00012383   -0.00045212
     atom  201 type  4   force =    -0.00013165    0.00051159   -0.00043082
     atom  202 type  4   force =    -0.00036552    0.00038544    0.00045212
     atom  203 type  4   force =    -0.00011825   -0.00051573    0.00042028
     atom  204 type  4   force =     0.00050888    0.00014179    0.00043082
     atom  205 type  5   force =    -0.00119953   -0.00191882   -0.00114684
     atom  206 type  5   force =     0.00223471   -0.00005616   -0.00114295
     atom  207 type  5   force =    -0.00107165    0.00201365   -0.00118597
     atom  208 type  5   force =    -0.00116599    0.00190723    0.00114295
     atom  209 type  5   force =    -0.00106198   -0.00199823    0.00114684
     atom  210 type  5   force =     0.00227970    0.00007875    0.00118597
     atom  211 type  5   force =    -0.00006651    0.00011023   -0.00020625
     atom  212 type  5   force =    -0.00008129   -0.00010461   -0.00020531
     atom  213 type  5   force =     0.00013358   -0.00000852   -0.00021097
     atom  214 type  5   force =    -0.00004995   -0.00012270    0.00020531
     atom  215 type  5   force =     0.00012871   -0.00000248    0.00020625
     atom  216 type  5   force =    -0.00007417    0.00011142    0.00021097
     atom  217 type  4   force =    -0.00009383   -0.00016252    0.00000000
     atom  218 type  2   force =    -0.00012328   -0.00017327    0.05474639
     atom  219 type  2   force =    -0.00008842   -0.00019339   -0.05474639

     Total force =     0.084855     Total SCF correction =     0.000199
     Energy error            =      9.5E-04 Ry
     Gradient error          =      5.5E-02 Ry/Bohr

     number of scf cycles    =   2
     number of bfgs steps    =   1

     energy             old  =   -2938.0826808666 Ry
     energy             new  =   -2938.0836298034 Ry

     CASE: energy            _new < energy            _old

     new trust radius        =       0.0267071489 bohr
     new conv_thr            =       0.0000000095 Ry


ATOMIC_POSITIONS (angstrom)
Mg              10.2311787232        5.4292058795        5.8297813577
Mg              12.1362440659        6.1458839549        1.1569326150
Mg              10.5630505352        7.4373950376        3.4933624220
Mg              -0.7456303993       13.5832376450        5.8523273850
Mg              -0.4137591475       11.5750636246        1.1794786423
Mg               1.1594477730       12.8665676236        3.5158975780
O               11.4395436715        4.4608150258        0.1825044063
O               12.3707275995        7.6765144635        2.5189242925
O                9.1202502386        6.8750873334        4.8553412000
O                0.4626927382       14.5516215962        4.4903357075
O               -1.8565927018       12.1373429401        6.8267555937
O                1.3938751647       11.3359120622        2.1539188000
O               10.8176753893        5.4833313665        2.6558465743
O               11.7961344482        6.6267018084        4.9922641257
O               10.3167113269        6.9023842407        0.3194273474
O               -0.1591751146       13.5291030027        2.0169958743
O               -0.6601334338       12.1100473803        4.3534134257
O                0.8192844358       12.3857262129        6.6898326526
O               10.2354696853        4.0570587391        4.2805667420
O               13.3224203558        6.8356421137        6.6169881678
O                9.3726168098        8.1197170764        1.9441461127
O               -0.7413704562       14.9553755248        0.3922718322
O               -1.6042189098       10.8927061367        2.7286932580
O                2.3455728548       12.1767827954        5.0651138873
H               10.5670356342        1.7586664922        3.7767585024
H               15.1471020490        8.2719884854        6.1131785031
H                7.2163680750        8.9817835611        1.4403373197
H               -0.4097988563       17.2537694108        0.8960814969
H               -3.7604679581       10.0306545480        3.2325014976
H                4.1702686978       10.7404498565        5.5689226803
H                0.8056835236       18.9791802678        0.0619364421
H               -5.8624586022       10.2205872457        2.3983554571
H                5.0567770582        8.8251054063        4.7347761825
H               11.7825174975        0.0332555447        4.6109045429
H               16.0336104931       10.1873325327        6.9473235579
H                5.1143769438        8.7918500968        2.2744838175
H               11.8844648086        2.2055063260        6.0370327985
H               14.1014114117        9.1894968722        1.3641924687
H                6.9446277248        7.6174353768        3.7006120654
H                0.9076320335       16.8069289478        5.6450675313
H               -4.0322078977       11.3950015978        0.9722272015
H                3.1245786857        9.8229417178        3.3086479346
H                2.7233869879       15.5480013790        1.4787066248
H               -3.8498227763       13.5969544457        3.8151272899
H                1.1264359069        8.8799149540        6.1515475110
H               13.7002193522        3.4644328985        3.1941327101
H               12.1032706783       10.1325230054        5.5305533752
H                7.1270139802        5.4154795881        0.8577124890
H                3.6234879074       14.1521832537        5.8999705370
H               -3.0910580316       15.0743715804        1.2271312615
H               -0.5324209247        8.7982904742        3.5635383105
H               14.6003177505        4.8602510103        5.7821287385
H               10.4444062630       10.2141242050        1.1092894630
H                7.8857535229        3.9380551909        3.4457216895
H                6.0022787787       13.6432275100        5.6218901964
H               -3.8396934675       17.3889440826        0.9490539274
H               -2.1625795758        6.9926664696        3.2854761834
H               16.9791140543        5.3691999557        6.0602060726
H                8.8142422240       12.0197396580        1.3873698036
H                7.1371165908        1.6234843844        3.7237838166
H                5.4034633401       14.9014527207        4.5243584193
H               -4.6299694211       16.2412697724        6.8608110235
H               -0.7735334235        6.8821573837        2.1879338069
H               16.3803369231        4.1109637488        0.1484489765
H               10.2033049394       12.1302628813        2.4849015807
H                6.3468898389        2.7711790964        4.8213261931
H                5.0331095327       16.4268069074        1.3765029548
H               -5.7657492213       15.1578343716        3.7129330241
H                0.7326285667        6.4402283377        6.0493597196
H               16.0099442428        2.5856318882        3.2963269759
H               11.7094773185       12.5722041689        5.6327570452
H                5.2110870633        3.8545891192        0.9599002804
H                5.5865738893       15.1426691289        2.4590465985
H               -4.9304169811       16.2792143843        4.7954706148
H               -0.6561740254        6.6029496801        0.1226004378
H               16.5634217010        3.8697408352        2.2137893852
H               10.3206492020       12.4094494726        4.5502134015
H                6.0464091756        2.7332114647        6.8866595622
H                7.2649683305       14.3972856494        0.8075987183
H               -5.1241249084       18.1054530949        3.1440674260
H               -2.1408774749        5.5221366056        5.4804442335
H               18.2418447815        4.6151042046        3.8651925740
H                8.8359309527       13.4902899566        6.2016612817
H                5.8527493210        0.9070140232        1.5288157665
H                7.4968599416       16.1187083835        1.1011274023
H               -6.7306808410       17.4454942281        3.4377640143
H               -0.7661026574        4.4608400375        5.7741305637
H               18.4735816037        2.8938065210        3.5714959857
H               10.2107809655       14.5518253498        5.9081325977
H                4.2462521234        1.5669556555        1.2351294363
H                6.2505233407       16.6748973094        6.0195227662
H               -6.5892708847       16.0881215781        1.3466157515
H                0.3388049304        5.2619566113        3.6830553136
H               17.2273574281        2.3375848104        5.6626442485
H               11.3156230052       13.7505606547        0.9897372338
H                4.3875856339        2.9243919822        3.3262046864
H                7.5687981966       15.5581504135        5.6414508881
H               -6.2812470048       17.7879881640        0.9685378128
H               -1.2875102456        4.6787504745        3.3049076912
H               18.5454731347        3.4542746083        6.0407221872
H                9.6893543957       14.3338467211        1.3678091119
H                4.6956718917        1.2243586569        3.7043523088
H                2.3397754004       13.9786152755        0.7872505006
H               -2.2989015445       14.0494472989        3.1236688317
H               -0.0408877004        9.9968195016        5.4600907165
H               13.3166290422        5.0338165110        3.8855911683
H               10.9359482381        9.0156125736        6.2220094994
H                8.6779434956        4.9629999636        1.5491692835
H                4.8355851797       13.4138305837        0.8696975644
H               -3.0576731891       16.4932652082        3.2061179469
H               -1.7779109548        8.1177858142        5.5425321893
H               15.8124232562        5.5986099459        3.8031420531
H                9.1989254577       10.8946548996        6.1395624356
H                7.9191642150        2.5191768546        1.4667278107
H                3.6972974537       13.1540314234        2.8552156898
H               -2.2635282660       15.6373713813        5.1916375044
H               -1.4337616040        9.2334709110        0.5187949077
H               14.6741249976        5.8584127101        1.8176224956
H                9.5430766481        9.7789692319        4.1540443102
H                8.7133011761        3.3750614834        6.4904650923
H                3.2889441023       14.6042665539        3.4788036007
H               -3.3153013722       14.5586036408        5.8152261706
H                0.0263654555        8.8619982820        1.1423806476
H               14.2657712826        4.4081666109        1.1940338294
H               11.0031937882       10.1504424211        3.5304563993
H                7.6615329128        4.4538322952        5.8668793524
C               11.3166944628        3.2773956979        0.8002010988
C               13.4570129750        8.1618452306        3.1366202570
C                8.1567949843        7.5731956998        5.4730425817
C                0.3398588240       15.7350377108        3.8726397430
C               -2.8200392987       11.4392427406        6.2090589012
C                2.4801823718       10.8505895198        1.5362174183
C               10.9504251841        3.1269916817        2.1845338278
C               13.7704046283        7.9198483339        4.5209535539
C                8.2096752271        7.9655944268        6.8573735273
C               -0.0264124629       15.8854443954        2.4883064461
C               -2.7671583583       11.0468422325        4.8247261722
C                2.7935695162       11.0925845169        0.1518864727
C               10.8704388941        1.8303568745        2.7395344918
C               14.9333158191        8.4988959331        5.0759541711
C                7.1267501732        8.6831788618        0.4031149845
C               -0.1063981273       17.1820788287        1.9333058289
C               -3.8500838956       10.3292546699        4.2697255082
C                3.9564783933       10.5135361273        6.6061450155
C               11.1639283241        0.6707590818        2.0155584921
C               15.7908101465        9.3328656902        4.3519787701
C                5.9757658773        9.0088093022        6.6883981126
C                0.1870937046       18.3416755783        2.6572812299
C               -5.0010697574       10.0036250756        4.9937015079
C                4.8139747750        9.6795697078        0.3208618874
C               11.5176832966        0.8364203408        0.6527185309
C               15.4704668479        9.5563936755        2.9891379469
C                5.9423570513        8.6196223804        5.3255600088
C                0.5408462677       18.1760141365        4.0201220531
C               -5.0344803849       10.3928164981        6.3565414691
C                4.4936334269        9.4560433549        1.6836999912
C               11.5806444367        2.0917190232        0.0637265529
C               14.3518659151        8.9832713486        2.4001437547
C                6.9979960180        7.9374421572        4.7365674112
C                0.6038082395       16.9207161485        4.6091162453
C               -3.9788404067       11.0749917860        6.9455334471
C                3.3750285403       10.0291634057        2.2726925888
C               10.6524173213        4.2778755171        3.0902680646
C               12.9227104959        7.0863290825        5.4266893313
C                9.3553730806        7.6482385698        0.7538497820
C               -0.3244142429       14.7345601165        1.5825706687
C               -1.6214597886       11.3642017706        3.9189919354
C                1.9458823554       11.9261100346        6.2554102180
C                4.4490196477       14.4486923231        0.7474962171
C               -3.7606179376       15.6410833500        3.0838643965
C               -0.6884264176        7.9351024033        5.4203407221
C               15.4258844926        4.5637510071        3.9253956035
C               10.2884247794       11.0773101984        6.2617637829
C                7.2162134717        3.3713564354        1.5889192779
C                5.5905326584       14.6703819516        5.5770176492
C               -4.5233625664       16.5187753776        0.9041916600
C               -1.0671683757        6.8357210371        3.2405362672
C               16.5673603997        4.3420407958        6.1050683400
C                9.9096571241       12.1767342786        1.4322423508
C                6.4534922591        2.4936655951        3.7687237328
C                6.6154679455       15.6524134445        6.1697593764
C               -5.8862861941       16.9154553179        1.4968614285
C               -0.7292121122        5.4570913710        3.8334120252
C               17.5923571189        3.3600542809        5.5123985715
C               10.2476537008       13.5553700209        0.8395006236
C                5.0905858142        2.0970294716        3.1758479748
C                5.4542165017       15.4145128817        1.4064916176
C               -5.0996756289       16.0286569703        3.7430115058
C               -0.3545726634        6.5816832838        6.0793590347
C               16.4310619393        3.5978798395        3.2662484942
C               10.6222514917       12.4307464889        5.6027683824
C                5.8771912551        2.9837727079        0.9299009653
C                6.8082032352       15.3858530621        0.6695648439
C               -5.7515961002       17.2155012263        3.0058035801
C               -1.0563925600        5.4234426517        5.3423955027
C               17.7848594509        3.6267222781        4.0034564199
C                9.9204379930       13.5890034868        6.3396951561
C                5.2250353924        1.7968585325        1.6668644973
C                3.0597073823       14.5107073222        1.4077121654
C               -3.1196720107       14.4068743703        3.7441552931
C                0.0599546764        9.1072926929        6.0805568155
C               14.0365551993        4.5017219725        3.2651047069
C               11.0367874769        9.9051379823        5.6015478346
C                7.8571694936        4.6055686193        0.9287031845
N                4.3089868187       14.7819610449        6.3169460952
N               -3.9792129507       15.3531588737        1.6441119076
N               -0.3297846349        7.8897292329        3.9805224625
N               15.2858320882        4.2304799344        5.3651480924
N               10.6470603734       11.1226725720        0.6923139048
N                6.9975982622        3.6592627448        3.0287375375
N                3.0095942896       13.9093996861        2.7854509870
N               -2.5738733067       14.6641326566        5.1218640541
N               -0.4357424491        9.4513373925        0.4490242918
N               13.9864480585        5.1030266585        1.8873959459
N               10.5410963348        9.5610849529        4.2238090130
N                8.4029695063        4.3483046657        6.5602357082
C               10.7046019247       18.5409144084        3.5046300000
O               10.7045752578       18.5409027452        2.3302706072
O               10.7046051575       18.5408854826        4.6789893928



     Writing config-only to output data dir ./tmp/c_MOF_CO2_free.save/ :
     XML data file
     NEW-OLD atomic charge density approx. for the potential

     Check: negative core charge=   -0.000001

     negative rho (up, down):  2.628E-07 0.000E+00

     total cpu time spent up to now is     2004.5 secs

     per-process dynamical memory:   382.1 Mb

     Self-consistent Calculation

     iteration #  1     ecut=    60.00 Ry     beta= 0.30
     Davidson diagonalization with overlap
     ethr =  1.00E-06,  avg # of iterations =  5.5

     negative rho (up, down):  2.729E-07 0.000E+00

     total cpu time spent up to now is     2092.4 secs

     total energy              =   -2938.08566836 Ry
     estimated scf accuracy    <       0.00072976 Ry

     iteration #  2     ecut=    60.00 Ry     beta= 0.30
     Davidson diagonalization with overlap
     ethr =  1.20E-07,  avg # of iterations =  3.0

     negative rho (up, down):  2.795E-07 0.000E+00

     total cpu time spent up to now is     2159.3 secs

     total energy              =   -2938.08563681 Ry
     estimated scf accuracy    <       0.00016837 Ry

     iteration #  3     ecut=    60.00 Ry     beta= 0.30
     Davidson diagonalization with overlap
     ethr =  2.76E-08,  avg # of iterations =  5.0

     negative rho (up, down):  2.816E-07 0.000E+00

     total cpu time spent up to now is     2230.0 secs

     total energy              =   -2938.08567123 Ry
     estimated scf accuracy    <       0.00001548 Ry

     iteration #  4     ecut=    60.00 Ry     beta= 0.30
     Davidson diagonalization with overlap
     ethr =  2.54E-09,  avg # of iterations =  5.0

     negative rho (up, down):  2.815E-07 0.000E+00

     total cpu time spent up to now is     2309.1 secs

     total energy              =   -2938.08567192 Ry
     estimated scf accuracy    <       0.00000692 Ry

     iteration #  5     ecut=    60.00 Ry     beta= 0.30
     Davidson diagonalization with overlap
     ethr =  1.13E-09,  avg # of iterations =  5.0

     negative rho (up, down):  2.824E-07 0.000E+00

     total cpu time spent up to now is     2386.8 secs

     total energy              =   -2938.08567316 Ry
     estimated scf accuracy    <       0.00000144 Ry

     iteration #  6     ecut=    60.00 Ry     beta= 0.30
     Davidson diagonalization with overlap
     ethr =  2.36E-10,  avg # of iterations =  4.0

     negative rho (up, down):  2.833E-07 0.000E+00

     total cpu time spent up to now is     2454.8 secs

     total energy              =   -2938.08567307 Ry
     estimated scf accuracy    <       0.00000057 Ry

     iteration #  7     ecut=    60.00 Ry     beta= 0.30
     Davidson diagonalization with overlap
     ethr =  9.29E-11,  avg # of iterations =  6.0

     negative rho (up, down):  2.842E-07 0.000E+00

     total cpu time spent up to now is     2540.7 secs

     total energy              =   -2938.08567322 Ry
     estimated scf accuracy    <       0.00000014 Ry

     iteration #  8     ecut=    60.00 Ry     beta= 0.30
     Davidson diagonalization with overlap
     ethr =  2.25E-11,  avg # of iterations =  6.0

     negative rho (up, down):  2.847E-07 0.000E+00

     total cpu time spent up to now is     2623.0 secs

     total energy              =   -2938.08567329 Ry
     estimated scf accuracy    <       0.00000002 Ry

     iteration #  9     ecut=    60.00 Ry     beta= 0.30
     Davidson diagonalization with overlap
     ethr =  3.35E-12,  avg # of iterations =  8.0

     negative rho (up, down):  2.862E-07 0.000E+00

     total cpu time spent up to now is     2720.4 secs

     End of self-consistent calculation

          k = 0.0000 0.0000 0.0000 (154911 PWs)   bands (ev):

   -25.0646 -24.1185 -22.3644 -22.3644 -22.2220 -22.2220 -22.2216 -22.2216
   -20.4339 -20.4335 -20.4188 -20.4184 -20.4182 -20.4178 -19.9402 -19.9398
   -19.9236 -19.9235 -19.9232 -19.9230 -18.6432 -18.6423 -18.6415 -18.6407
   -18.6385 -18.6373 -18.0641 -18.0630 -18.0625 -18.0614 -18.0594 -18.0580
   -17.0241 -17.0156 -17.0150 -16.3808 -16.3595 -16.3590 -15.3406 -15.3405
   -15.3310 -15.2781 -15.2780 -15.2689 -14.7231 -14.7177 -14.7143 -14.7138
   -14.7132 -14.7089 -14.6045 -14.5483 -14.5478 -14.4384 -14.4295 -14.4290
   -14.2035 -14.2030 -14.1930 -13.0424 -12.9672 -12.9668 -12.6726 -12.6705
   -12.6640 -12.6579 -12.6562 -12.6517 -11.6282 -11.6271 -11.6196 -11.5894
   -11.5881 -11.5840 -11.5654 -11.5618 -11.5482 -11.1847 -11.1843 -11.1529
   -10.7173 -10.7150 -10.7086 -10.7062 -10.6914 -10.6885 -10.6766 -10.5925
   -10.5920 -10.2777 -10.2773 -10.2339  -9.8460  -9.7351  -9.6855  -9.6817
    -9.6762  -9.6408  -9.6371  -9.6318  -9.4573  -9.4569  -9.3805  -8.8761
    -8.8758  -8.7237  -8.6915  -8.6845  -8.6750  -8.6731  -8.6589  -8.6568
    -8.6398  -8.6392  -8.5055  -8.5051  -8.4107  -8.3643  -8.3614  -8.3376
    -8.3003  -8.2886  -8.2857  -8.0090  -8.0088  -7.8182  -7.6839  -7.6803
    -7.6800  -7.6037  -7.6034  -7.5342  -7.4479  -7.4478  -7.3983  -7.3490
    -7.3449  -7.3438  -7.3178  -7.3173  -7.2273  -7.2183  -7.2179  -7.2134
    -7.1629  -7.1628  -7.0687  -7.0648  -7.0588  -7.0581  -6.9882  -6.9880
    -6.8967  -6.8959  -6.8940  -6.8350  -6.8331  -6.6915  -6.6366  -6.5842
    -6.5838  -6.5318  -6.5139  -6.5102  -6.4990  -6.4859  -6.4841  -6.4530
    -6.4505  -6.4307  -6.4086  -6.3044  -6.2779  -6.1795  -6.1783  -6.1631
    -6.1623  -6.0854  -6.0835  -6.0693  -6.0531  -6.0527  -6.0260  -5.9949
    -5.9948  -5.9569  -5.9167  -5.9133  -5.8937  -5.6418  -5.6278  -5.6229
    -5.6202  -5.6155  -5.6124  -5.5162  -5.5157  -5.4088  -5.3952  -5.3943
    -5.3922  -5.3156  -5.3153  -5.2942  -5.2559  -5.2342  -5.2320  -5.2101
    -5.2088  -5.2065  -5.1097  -5.1084  -5.0921  -5.0687  -5.0656  -5.0231
    -5.0193  -5.0151  -4.9059  -4.9053  -4.8912  -4.7505  -4.7500  -4.6440
    -4.4357  -4.4342  -4.3764  -4.3741  -4.3549  -4.3431  -4.2800  -4.2695
    -4.2680  -4.2053  -4.2045  -4.1642  -4.1345  -4.1306  -4.1236  -4.1095
    -4.0846  -4.0791  -3.9508  -3.9479  -3.9359  -3.9286  -3.8901  -3.8862
    -3.8444  -3.8410  -3.7821  -3.7820  -3.7262  -3.7229  -3.7226  -3.6104
    -3.5873  -3.5859  -3.3841  -3.3835  -3.3685  -3.3681  -3.3445  -3.0752
    -3.0752  -3.0179  -2.9981  -2.9817  -2.9816  -2.7653  -2.7639  -2.6915
    -2.6902  -2.5507  -2.5468  -2.4533  -2.4531  -2.4465  -2.4462  -2.3839
    -2.3761  -2.1302  -2.1297  -2.1179  -2.1175  -2.0931  -2.0823  -1.9125
    -1.9123  -1.8845  -1.8843  -1.7316  -1.7309  -1.5213  -1.5208  -1.4489
    -1.3069  -1.3042  -1.3014  -1.2661  -1.2653  -1.2620  -0.6178  -0.6173
    -0.5398

          k = 0.0000 0.0000-1.5660 (154844 PWs)   bands (ev):

   -25.0644 -24.1187 -22.3047 -22.3047 -22.3043 -22.3043 -22.1906 -22.1906
   -20.4657 -20.4654 -20.4653 -20.4650 -20.4046 -20.4041 -19.9189 -19.9185
   -19.9185 -19.9181 -19.8948 -19.8947 -18.6063 -18.6052 -18.6036 -18.6025
   -18.6011 -18.5999 -18.1161 -18.1148 -18.1126 -18.1113 -18.1103 -18.1090
   -17.0053 -17.0051 -17.0044 -16.3690 -16.3686 -16.3661 -15.3357 -15.3357
   -15.3261 -15.2733 -15.2733 -15.2641 -14.7144 -14.7142 -14.7106 -14.7106
   -14.7096 -14.7058 -14.5640 -14.5635 -14.5488 -14.4812 -14.4807 -14.4759
   -14.1952 -14.1947 -14.1882 -13.0056 -13.0051 -12.9757 -12.6810 -12.6761
   -12.6731 -12.6679 -12.6625 -12.6595 -11.6015 -11.6010 -11.5573 -11.5486
   -11.5469 -11.5395 -11.4936 -11.4898 -11.4831 -11.1397 -11.1393 -11.0795
   -10.7483 -10.7467 -10.7420 -10.7226 -10.7205 -10.7159 -10.6051 -10.6047
   -10.5345 -10.2809 -10.2805 -10.2469  -9.8305  -9.6994  -9.6964  -9.6870
    -9.6577  -9.6565  -9.6461  -9.6444  -9.6409  -9.4818  -9.2009  -9.2006
    -8.8220  -8.7633  -8.7622  -8.7600  -8.7589  -8.7448  -8.7252  -8.7194
    -8.6391  -8.6385  -8.4402  -8.3417  -8.3414  -8.1358  -8.1330  -8.1196
    -8.0553  -8.0532  -8.0468  -7.9500  -7.8991  -7.8988  -7.8364  -7.8359
    -7.7705  -7.5895  -7.5038  -7.5035  -7.4449  -7.4430  -7.4422  -7.4085
    -7.3925  -7.3905  -7.3171  -7.3103  -7.2678  -7.2678  -7.2542  -7.1917
    -7.1891  -7.1708  -7.1511  -7.1478  -7.1087  -7.1066  -6.9402  -6.9084
    -6.8535  -6.8532  -6.7585  -6.7564  -6.7232  -6.6365  -6.6344  -6.6237
    -6.5731  -6.5724  -6.5479  -6.5031  -6.4751  -6.4748  -6.4460  -6.4435
    -6.3971  -6.3964  -6.3856  -6.3616  -6.3064  -6.3052  -6.2777  -6.2776
    -6.2556  -6.2553  -6.2284  -6.1835  -6.1793  -6.1786  -6.1192  -6.1071
    -6.1037  -6.1027  -6.1003  -6.0843  -6.0216  -6.0125  -5.9648  -5.9605
    -5.8463  -5.8145  -5.8094  -5.5469  -5.5464  -5.5297  -5.4829  -5.4016
    -5.4009  -5.3691  -5.3677  -5.3113  -5.2859  -5.2846  -5.2792  -5.2328
    -5.2004  -5.1993  -5.1135  -5.1126  -5.0608  -5.0593  -5.0550  -5.0115
    -5.0097  -5.0045  -4.7239  -4.7234  -4.7166  -4.6735  -4.6731  -4.5921
    -4.5052  -4.4118  -4.3857  -4.3849  -4.3645  -4.3642  -4.2586  -4.2578
    -4.2563  -4.1277  -4.1248  -4.1161  -4.0944  -4.0914  -4.0712  -4.0627
    -4.0593  -4.0582  -3.9573  -3.9218  -3.9175  -3.8837  -3.8807  -3.8095
    -3.8076  -3.6791  -3.5914  -3.5616  -3.5611  -3.4203  -3.4193  -3.4117
    -3.4054  -3.4035  -3.3931  -3.3537  -3.3529  -3.2772  -3.2768  -3.0100
    -2.9268  -2.9160  -2.9159  -2.8911  -2.8910  -2.8038  -2.7586  -2.7585
    -2.7214  -2.7211  -2.7054  -2.4310  -2.4265  -2.3922  -2.3921  -2.3849
    -2.3847  -2.1940  -2.1590  -2.1585  -2.1161  -2.0713  -2.0709  -1.9262
    -1.9260  -1.9110  -1.9108  -1.9076  -1.8724  -1.5055  -1.5051  -1.4468
    -1.3009  -1.2988  -1.2905  -1.2669  -1.2651  -1.2598  -0.5956  -0.5775
    -0.5770

     highest occupied level (ev):    -0.5398

!    total energy              =   -2938.08567334 Ry
     estimated scf accuracy    <          4.2E-09 Ry

     The total energy is the sum of the following terms:
     one-electron contribution =   -5752.17907220 Ry
     hartree contribution      =    3071.49501759 Ry
     xc contribution           =    -693.76963865 Ry
     ewald contribution        =    1356.25987890 Ry
     one-center paw contrib.   =    -919.89185898 Ry

     convergence has been achieved in   9 iterations

     negative rho (up, down):  2.862E-07 0.000E+00

     Forces acting on atoms (cartesian axes, Ry/au):

     atom    1 type  1   force =    -0.00055474   -0.00049971   -0.00063162
     atom    2 type  1   force =     0.00070356   -0.00021190   -0.00063702
     atom    3 type  1   force =    -0.00017139    0.00074760   -0.00062911
     atom    4 type  1   force =    -0.00053529    0.00050335    0.00063702
     atom    5 type  1   force =    -0.00015540   -0.00073027    0.00063162
     atom    6 type  1   force =     0.00073313    0.00022537    0.00062911
     atom    7 type  2   force =     0.00189980   -0.00032437   -0.00113754
     atom    8 type  2   force =    -0.00066404    0.00179663   -0.00113686
     atom    9 type  2   force =    -0.00123117   -0.00148276   -0.00113655
     atom   10 type  2   force =     0.00188794    0.00032323    0.00113686
     atom   11 type  2   force =    -0.00123081    0.00148309    0.00113754
     atom   12 type  2   force =    -0.00066852   -0.00180761    0.00113655
     atom   13 type  2   force =    -0.00027454   -0.00058598   -0.00061755
     atom   14 type  2   force =     0.00064981    0.00004544   -0.00062053
     atom   15 type  2   force =    -0.00036745    0.00053052   -0.00061830
     atom   16 type  2   force =    -0.00028556    0.00058547    0.00062053
     atom   17 type  2   force =    -0.00037021   -0.00053075    0.00061755
     atom   18 type  2   force =     0.00064317   -0.00005296    0.00061830
     atom   19 type  2   force =    -0.00060341   -0.00010351    0.00091039
     atom   20 type  2   force =     0.00039151   -0.00047313    0.00091040
     atom   21 type  2   force =     0.00020976    0.00056331    0.00090939
     atom   22 type  2   force =    -0.00060550    0.00010249   -0.00091040
     atom   23 type  2   force =     0.00021206   -0.00057433   -0.00091039
     atom   24 type  2   force =     0.00038296    0.00046331   -0.00090939
     atom   25 type  3   force =     0.00067045    0.00003525   -0.00060866
     atom   26 type  3   force =    -0.00036579    0.00056329   -0.00060829
     atom   27 type  3   force =    -0.00030373   -0.00059620   -0.00060986
     atom   28 type  3   force =     0.00067072   -0.00003514    0.00060829
     atom   29 type  3   force =    -0.00030470    0.00059825    0.00060866
     atom   30 type  3   force =    -0.00036446   -0.00056114    0.00060986
     atom   31 type  3   force =     0.00009498    0.00008521    0.00006630
     atom   32 type  3   force =    -0.00012127    0.00003797    0.00006578
     atom   33 type  3   force =     0.00002864   -0.00012253    0.00006631
     atom   34 type  3   force =     0.00009351   -0.00008604   -0.00006578
     atom   35 type  3   force =     0.00002630    0.00012486   -0.00006630
     atom   36 type  3   force =    -0.00012043   -0.00003646   -0.00006631
     atom   37 type  3   force =    -0.00122338    0.00040241    0.00114258
     atom   38 type  3   force =     0.00026146   -0.00125917    0.00114177
     atom   39 type  3   force =     0.00096094    0.00085941    0.00114281
     atom   40 type  3   force =    -0.00122120   -0.00040316   -0.00114177
     atom   41 type  3   force =     0.00096019   -0.00085828   -0.00114258
     atom   42 type  3   force =     0.00026380    0.00126191   -0.00114281
     atom   43 type  3   force =    -0.00006080   -0.00013610   -0.00009884
     atom   44 type  3   force =     0.00014826    0.00001708   -0.00009724
     atom   45 type  3   force =    -0.00008682    0.00012094   -0.00009797
     atom   46 type  3   force =    -0.00005934    0.00013694    0.00009724
     atom   47 type  3   force =    -0.00008747   -0.00012071    0.00009884
     atom   48 type  3   force =     0.00014814   -0.00001472    0.00009797
     atom   49 type  3   force =    -0.00084281   -0.00041749   -0.00035671
     atom   50 type  3   force =     0.00077122   -0.00052277   -0.00035059
     atom   51 type  3   force =     0.00007118    0.00091894   -0.00036442
     atom   52 type  3   force =    -0.00083834    0.00040651    0.00035059
     atom   53 type  3   force =     0.00005984   -0.00093864    0.00035671
     atom   54 type  3   force =     0.00076024    0.00052111    0.00036442
     atom   55 type  3   force =    -0.00012410   -0.00049383    0.00026484
     atom   56 type  3   force =     0.00048303    0.00013303    0.00026789
     atom   57 type  3   force =    -0.00036373    0.00033146    0.00026206
     atom   58 type  3   force =    -0.00012630    0.00048484   -0.00026789
     atom   59 type  3   force =    -0.00036562   -0.00035439   -0.00026484
     atom   60 type  3   force =     0.00046892   -0.00014928   -0.00026206
     atom   61 type  3   force =    -0.00030691    0.00005937    0.00249286
     atom   62 type  3   force =     0.00006893   -0.00028167    0.00250250
     atom   63 type  3   force =     0.00021015    0.00021678    0.00246422
     atom   64 type  3   force =    -0.00027839   -0.00008114   -0.00250250
     atom   65 type  3   force =     0.00020487   -0.00023611   -0.00249286
     atom   66 type  3   force =     0.00008266    0.00029039   -0.00246422
     atom   67 type  3   force =    -0.00013512    0.00068840   -0.00022969
     atom   68 type  3   force =    -0.00054153   -0.00047382   -0.00021438
     atom   69 type  3   force =     0.00066509   -0.00023333   -0.00021335
     atom   70 type  3   force =    -0.00013957   -0.00070589    0.00021438
     atom   71 type  3   force =     0.00066374    0.00022718    0.00022969
     atom   72 type  3   force =    -0.00053462    0.00045932    0.00021335
     atom   73 type  3   force =     0.00155776    0.00045825   -0.00180530
     atom   74 type  3   force =    -0.00120614    0.00113620   -0.00176896
     atom   75 type  3   force =    -0.00037963   -0.00161635   -0.00180070
     atom   76 type  3   force =     0.00158705   -0.00047645    0.00176896
     atom   77 type  3   force =    -0.00038203    0.00157818    0.00180530
     atom   78 type  3   force =    -0.00120999   -0.00113695    0.00180070
     atom   79 type  3   force =     0.00015720    0.00055038   -0.00027955
     atom   80 type  3   force =    -0.00057491   -0.00012528   -0.00024965
     atom   81 type  3   force =     0.00039949   -0.00040721   -0.00027190
     atom   82 type  3   force =     0.00017896   -0.00056052    0.00024965
     atom   83 type  3   force =     0.00039804    0.00041133    0.00027955
     atom   84 type  3   force =    -0.00055240    0.00014237    0.00027190
     atom   85 type  3   force =     0.00054436    0.00038569    0.00051122
     atom   86 type  3   force =    -0.00038147    0.00019219    0.00066175
     atom   87 type  3   force =     0.00003845   -0.00051517    0.00070265
     atom   88 type  3   force =     0.00035718   -0.00023427   -0.00066175
     atom   89 type  3   force =     0.00006184    0.00066427   -0.00051122
     atom   90 type  3   force =    -0.00046538   -0.00022428   -0.00070265
     atom   91 type  3   force =     0.00053500   -0.00013650    0.00022072
     atom   92 type  3   force =    -0.00011370    0.00054624    0.00015067
     atom   93 type  3   force =    -0.00039778   -0.00031090    0.00018389
     atom   94 type  3   force =     0.00052991    0.00017465   -0.00015067
     atom   95 type  3   force =    -0.00038571    0.00039507   -0.00022072
     atom   96 type  3   force =    -0.00007036   -0.00049994   -0.00018389
     atom   97 type  3   force =     0.00044747    0.00016585   -0.00070320
     atom   98 type  3   force =    -0.00032823    0.00025077   -0.00082421
     atom   99 type  3   force =    -0.00011228   -0.00031603   -0.00081856
     atom  100 type  3   force =     0.00038129   -0.00015887    0.00082421
     atom  101 type  3   force =    -0.00008010    0.00047045    0.00070320
     atom  102 type  3   force =    -0.00021755   -0.00025526    0.00081856
     atom  103 type  3   force =    -0.00060188    0.00018891   -0.00020930
     atom  104 type  3   force =     0.00012377   -0.00060226   -0.00020611
     atom  105 type  3   force =     0.00046278    0.00042070   -0.00020883
     atom  106 type  3   force =    -0.00058346   -0.00019394    0.00020611
     atom  107 type  3   force =     0.00046455   -0.00042679    0.00020930
     atom  108 type  3   force =     0.00013295    0.00061113    0.00020883
     atom  109 type  3   force =    -0.00014492    0.00008380   -0.00001771
     atom  110 type  3   force =    -0.00000315   -0.00015902   -0.00002004
     atom  111 type  3   force =     0.00013875    0.00008474   -0.00002141
     atom  112 type  3   force =    -0.00013614   -0.00008224    0.00002004
     atom  113 type  3   force =     0.00014503   -0.00008361    0.00001771
     atom  114 type  3   force =     0.00000401    0.00016254    0.00002141
     atom  115 type  3   force =    -0.00000921   -0.00003389   -0.00023101
     atom  116 type  3   force =     0.00004481    0.00000936   -0.00022768
     atom  117 type  3   force =    -0.00002935    0.00002847   -0.00023127
     atom  118 type  3   force =    -0.00001430    0.00004349    0.00022768
     atom  119 type  3   force =    -0.00002475   -0.00002493    0.00023101
     atom  120 type  3   force =     0.00003933   -0.00001118    0.00023127
     atom  121 type  3   force =    -0.00007651   -0.00014884   -0.00028067
     atom  122 type  3   force =     0.00016453    0.00000141   -0.00027312
     atom  123 type  3   force =    -0.00008361    0.00014306   -0.00028101
     atom  124 type  3   force =    -0.00008105    0.00014319    0.00027312
     atom  125 type  3   force =    -0.00009065   -0.00014068    0.00028067
     atom  126 type  3   force =     0.00016570   -0.00000088    0.00028101
     atom  127 type  4   force =     0.00021787   -0.00007069    0.00082020
     atom  128 type  4   force =    -0.00004559    0.00022074    0.00081993
     atom  129 type  4   force =    -0.00016828   -0.00015350    0.00081892
     atom  130 type  4   force =     0.00021396    0.00007089   -0.00081993
     atom  131 type  4   force =    -0.00017016    0.00015333   -0.00082020
     atom  132 type  4   force =    -0.00004880   -0.00022249   -0.00081892
     atom  133 type  4   force =    -0.00085772   -0.00045168    0.00019302
     atom  134 type  4   force =     0.00081997   -0.00051771    0.00019382
     atom  135 type  4   force =     0.00004093    0.00096690    0.00019119
     atom  136 type  4   force =    -0.00085834    0.00045125   -0.00019382
     atom  137 type  4   force =     0.00003770   -0.00096865   -0.00019302
     atom  138 type  4   force =     0.00081690    0.00051889   -0.00019119
     atom  139 type  4   force =     0.00099735    0.00026260   -0.00008964
     atom  140 type  4   force =    -0.00072634    0.00073069   -0.00008979
     atom  141 type  4   force =    -0.00027212   -0.00099599   -0.00008734
     atom  142 type  4   force =     0.00099597   -0.00026368    0.00008979
     atom  143 type  4   force =    -0.00027125    0.00099503    0.00008964
     atom  144 type  4   force =    -0.00072649   -0.00073366    0.00008734
     atom  145 type  4   force =    -0.00012919    0.00050804   -0.00020913
     atom  146 type  4   force =    -0.00037554   -0.00036641   -0.00020987
     atom  147 type  4   force =     0.00050387   -0.00014258   -0.00020887
     atom  148 type  4   force =    -0.00012955   -0.00050843    0.00020987
     atom  149 type  4   force =     0.00050457    0.00014213    0.00020913
     atom  150 type  4   force =    -0.00037541    0.00036507    0.00020887
     atom  151 type  4   force =    -0.00009827   -0.00028149    0.00029444
     atom  152 type  4   force =     0.00029239    0.00005374    0.00029345
     atom  153 type  4   force =    -0.00019225    0.00022711    0.00029397
     atom  154 type  4   force =    -0.00009966    0.00028009   -0.00029345
     atom  155 type  4   force =    -0.00019464   -0.00022585   -0.00029444
     atom  156 type  4   force =     0.00029281   -0.00005294   -0.00029397
     atom  157 type  4   force =    -0.00030381    0.00014194    0.00094387
     atom  158 type  4   force =     0.00002895   -0.00033533    0.00094262
     atom  159 type  4   force =     0.00027694    0.00019088    0.00094399
     atom  160 type  4   force =    -0.00030488   -0.00014260   -0.00094262
     atom  161 type  4   force =     0.00027482   -0.00019213   -0.00094387
     atom  162 type  4   force =     0.00002684    0.00033528   -0.00094399
     atom  163 type  4   force =    -0.00061842   -0.00044698    0.00002992
     atom  164 type  4   force =     0.00069862   -0.00031443    0.00003048
     atom  165 type  4   force =    -0.00007841    0.00075926    0.00003076
     atom  166 type  4   force =    -0.00062161    0.00044781   -0.00003048
     atom  167 type  4   force =    -0.00007788   -0.00075906   -0.00002992
     atom  168 type  4   force =     0.00069674    0.00031173   -0.00003076
     atom  169 type  4   force =    -0.00042421    0.00001777    0.00091047
     atom  170 type  4   force =     0.00019471   -0.00038704    0.00094087
     atom  171 type  4   force =     0.00023053    0.00035328    0.00091410
     atom  172 type  4   force =    -0.00043254   -0.00002490   -0.00094087
     atom  173 type  4   force =     0.00022749   -0.00035849   -0.00091047
     atom  174 type  4   force =     0.00019068    0.00037629   -0.00091410
     atom  175 type  4   force =    -0.00006321    0.00037976    0.00355908
     atom  176 type  4   force =    -0.00028273   -0.00024270    0.00355529
     atom  177 type  4   force =     0.00036382   -0.00013206    0.00357270
     atom  178 type  4   force =    -0.00006882   -0.00036620   -0.00355529
     atom  179 type  4   force =     0.00036049    0.00013514   -0.00355908
     atom  180 type  4   force =    -0.00029628    0.00024905   -0.00357270
     atom  181 type  4   force =     0.00043484    0.00003858   -0.00023201
     atom  182 type  4   force =    -0.00019431    0.00029865   -0.00025948
     atom  183 type  4   force =    -0.00016921   -0.00035966   -0.00024830
     atom  184 type  4   force =     0.00035579   -0.00001895    0.00025948
     atom  185 type  4   force =    -0.00018401    0.00039587    0.00023201
     atom  186 type  4   force =    -0.00022687   -0.00032638    0.00024830
     atom  187 type  4   force =     0.00020367    0.00005300   -0.00304091
     atom  188 type  4   force =    -0.00010561    0.00013520   -0.00307637
     atom  189 type  4   force =    -0.00006480   -0.00018729   -0.00305611
     atom  190 type  4   force =     0.00016989   -0.00002386    0.00307637
     atom  191 type  4   force =    -0.00005593    0.00020288    0.00304091
     atom  192 type  4   force =    -0.00012979   -0.00014977    0.00305611
     atom  193 type  4   force =     0.00067534    0.00046208    0.00021232
     atom  194 type  4   force =    -0.00073894    0.00034154    0.00022797
     atom  195 type  4   force =     0.00005138   -0.00073086    0.00021882
     atom  196 type  4   force =     0.00066525   -0.00046918   -0.00022797
     atom  197 type  4   force =     0.00006250    0.00081590   -0.00021232
     atom  198 type  4   force =    -0.00065863   -0.00032094   -0.00021882
     atom  199 type  4   force =    -0.00018239   -0.00014459   -0.00000940
     atom  200 type  4   force =     0.00020608   -0.00007531   -0.00001817
     atom  201 type  4   force =    -0.00003911    0.00021929   -0.00001555
     atom  202 type  4   force =    -0.00016826    0.00014082    0.00001817
     atom  203 type  4   force =    -0.00003402   -0.00023025    0.00000940
     atom  204 type  4   force =     0.00020947    0.00007578    0.00001555
     atom  205 type  5   force =    -0.00018915   -0.00103583   -0.00021044
     atom  206 type  5   force =     0.00099049    0.00035895   -0.00021650
     atom  207 type  5   force =    -0.00080707    0.00066874   -0.00021736
     atom  208 type  5   force =    -0.00018438    0.00103726    0.00021650
     atom  209 type  5   force =    -0.00080248   -0.00068172    0.00021044
     atom  210 type  5   force =     0.00098268   -0.00036458    0.00021736
     atom  211 type  5   force =    -0.00005302   -0.00009184   -0.00026952
     atom  212 type  5   force =     0.00009685    0.00000863   -0.00027291
     atom  213 type  5   force =    -0.00005468    0.00008573   -0.00027475
     atom  214 type  5   force =    -0.00004095    0.00008819    0.00027291
     atom  215 type  5   force =    -0.00005302   -0.00009184    0.00026952
     atom  216 type  5   force =     0.00010158   -0.00000448    0.00027475
     atom  217 type  4   force =    -0.00009444   -0.00016358    0.00000000
     atom  218 type  2   force =    -0.00012174   -0.00016909    0.00367132
     atom  219 type  2   force =    -0.00008557   -0.00018997   -0.00367132

     Total force =     0.019517     Total SCF correction =     0.000145
     Energy error            =      2.0E-03 Ry
     Gradient error          =      3.7E-03 Ry/Bohr

     number of scf cycles    =   3
     number of bfgs steps    =   2

     energy             old  =   -2938.0836298034 Ry
     energy             new  =   -2938.0856733418 Ry

     CASE: energy            _new < energy            _old

     new trust radius        =       0.0042088957 bohr
     new conv_thr            =       0.0000000037 Ry


ATOMIC_POSITIONS (angstrom)
Mg              10.2307959060        5.4288575848        5.8293533248
Mg              12.1367327229        6.1457394540        1.1565007868
Mg              10.5629291246        7.4379125869        3.4929359974
Mg              -0.7459998693       13.5835885839        5.8527592132
Mg              -0.4138693710       11.5745579478        1.1799066752
Mg               1.1599566891       12.8667212536        3.5163240026
O               11.4408090613        4.4604871004        0.1817735219
O               12.3703823787        7.6777668896        2.5181938124
O                9.1193337004        6.8741553758        4.8546107773
O                0.4639499815       14.5519488392        4.4910661876
O               -1.8575093884       12.1382748372        6.8274864781
O                1.3935263348       11.3346523381        2.1546492227
O               10.8174690619        5.4828312970        2.6554731067
O               11.7966741556        6.6267663778        4.9918886916
O               10.3163835144        6.9028126856        0.3190535133
O               -0.1593890497       13.5296026878        2.0173713084
O               -0.6604633431       12.1096186607        4.3537868933
O                0.8198193861       12.3856565415        6.6902064867
O               10.2350951543        4.0570264713        4.2811026149
O               13.3226357214        6.8353321853        6.6175241225
O                9.3727747443        8.1200501375        1.9446813979
O               -0.7417465449       14.9554070727        0.3917358775
O               -1.6040595891       10.8923656494        2.7281573851
O                2.3457823270       12.1770861012        5.0645786021
H               10.5674746621        1.7586885588        3.7763475279
H               15.1468633809        8.2723578617        6.1127677586
H                7.2161683199        8.9813936964        1.4399255466
H               -0.4093596330       17.2537474063        0.8964922414
H               -3.7606683618       10.0310457906        3.2329124721
H                4.1700309426       10.7400819312        5.5693344534
H                0.8057481975       18.9792292728        0.0619846303
H               -5.8625333464       10.2206176609        2.3984032757
H                5.0567886867        8.8250264392        4.7348243669
H               11.7825812099        0.0332060220        4.6108567243
H               16.0336205958       10.1874130444        6.9472753697
H                5.1143027421        8.7918206838        2.2744356331
H               11.8836524133        2.2057679263        6.0377851147
H               14.1015898982        9.1886635395        1.3649442562
H                6.9452609733        7.6180088850        3.7013644838
H                0.9068211029       16.8066668553        5.6443157438
H               -4.0315751476       11.3944288428        0.9714748853
H                3.1247587340        9.8237768813        3.3078955162
H                2.7233512841       15.5478983357        1.4786402200
H               -3.8497157478       13.5969758768        3.8150619198
H                1.1263649633        8.8799976359        6.1514816979
H               13.7001843979        3.4645363034        3.1941980802
H               12.1031992921       10.1324405634        5.5306197800
H                7.1271210567        5.4154594900        0.8577783021
H                3.6229499155       14.1519141950        5.8997202837
H               -3.0905631420       15.0740388983        1.2268847807
H               -0.5323775049        8.7988775207        3.5632827366
H               14.5997821946        4.8605132563        5.7823752193
H               10.4444422473       10.2135237611        1.1095397163
H                7.8862402102        3.9383863168        3.4459772634
H                6.0021864417       13.6429376391        5.6220502618
H               -3.8394007832       17.3890048607        0.9492160791
H               -2.1627825221        6.9928756778        3.2856348226
H               16.9790203475        5.3694838167        6.0600439209
H                8.8140373570       12.0195147563        1.3872097382
H                7.1373992436        1.6234132319        3.7236251774
H                5.4032840168       14.9014652361        4.5261002651
H               -4.6299128938       16.2411179839        6.8625605989
H               -0.7734297587        6.8822937018        2.1896575090
H               16.3801772068        4.1109368086        0.1466994011
H               10.2034054397       12.1301138405        2.4831597349
H                6.3469560615        2.7713370318        4.8196024910
H                5.0330322479       16.4272251405        1.3763567007
H               -5.7660806649       15.1575505869        3.7127967538
H                0.7330295558        6.4400821872        6.0492244283
H               16.0098641999        2.5852029574        3.2964632462
H               11.7098781614       12.5723463550        5.6329032993
H                5.2107599987        3.8548633107        0.9600355717
H                5.5875994593       15.1430007082        2.4577645355
H               -4.9312371425       16.2799467826        4.7942115021
H               -0.6563975780        6.6018702693        0.1213199184
H               16.5644660572        3.8693967537        2.2150484979
H               10.3204235731       12.4105034319        4.5514954645
H                6.0455861547        2.7324781571        6.8879400816
H                7.2650677042       14.3976422599        0.8074219436
H               -5.1244985716       18.1053701612        3.1439116481
H               -2.1406159375        5.5218742488        5.4802724619
H               18.2419597903        4.6147391359        3.8653483519
H                8.8361900996       13.4905543220        6.2018380564
H                5.8523913447        0.9071093427        1.5289875381
H                7.4971903924       16.1189440522        1.1014623986
H               -6.7309043793       17.4456061330        3.4382028201
H               -0.7660807264        4.4605398612        5.7745920967
H               18.4737902852        2.8936688836        3.5710571799
H               10.2108198352       14.5522293629        5.9077976014
H                4.2459811976        1.5668245602        1.2346679033
H                6.2508698640       16.6748044102        6.0196612108
H               -6.5893395541       16.0884785275        1.3467075644
H                0.3385445378        5.2617591164        3.6831685967
H               17.2277008901        2.3377038157        5.6625524356
H               11.3153692905       13.7508143031        0.9895987892
H                4.3875447946        2.9240677281        3.3260914033
H                7.5690716778       15.5582574608        5.6409874810
H               -6.2814487643       17.7881310556        0.9679958633
H               -1.2875756529        4.6785637609        3.3043667600
H               18.5456977623        3.4541713252        6.0412641367
H                9.6893103608       14.3341370864        1.3682725190
H                4.6955428967        1.2242086558        3.7048932400
H                2.3394080191       13.9787574210        0.7871241380
H               -2.2988500527       14.0490670949        3.1235444005
H               -0.0405820376        9.9970626244        5.4599646732
H               13.3162740300        5.0336710022        3.8857155995
H               10.9362550304        9.0153654848        6.2221358620
H                8.6780012147        4.9633862366        1.5492953268
H                4.8354878343       13.4139116236        0.8696818382
H               -3.0576963977       16.4931458742        3.2061007984
H               -1.7777960640        8.1178305594        5.5425139034
H               15.8123315143        5.5985301796        3.8031592016
H                9.1990443130       10.8946111160        6.1395781618
H                7.9191455201        2.5192987255        1.4667460966
H                3.6972848659       13.1540146115        2.8550656605
H               -2.2635001528       15.6373690115        5.1914896204
H               -1.4337729018        9.2334926210        0.5186446742
H               14.6741088887        5.8584358719        1.8177703796
H                9.5430683824        9.7789499246        4.1541943395
H                8.7133256264        3.3750625543        6.4906153258
H                3.2888942960       14.6041671296        3.4786211329
H               -3.3151918836       14.5586056304        5.8150484863
H                0.0263089323        8.8620928553        1.1421978147
H               14.2657182614        4.4082624255        1.1942115137
H               11.0031325874       10.1503495754        3.5306388671
H                7.6616430773        4.4538306313        5.8670621853
C               11.3168576747        3.2774249388        0.8007629387
C               13.4569072909        8.1619698598        3.1371818930
C                8.1567398922        7.5730397111        5.4736036730
C                0.3400195981       15.7350085002        3.8720781070
C               -2.8200955813       11.4393987068        6.2084970613
C                2.4800748276       10.8504638143        1.5356563270
C               10.9498111011        3.1268031864        2.1846571066
C               13.7708749318        7.9194101894        4.5210773031
C                8.2098209082        7.9662194741        6.8574956989
C               -0.0270270589       15.8856326180        2.4881826969
C               -2.7670145586       11.0462161733        4.8246028934
C                2.7940379826       11.0930232041        0.1517643011
C               10.8711466940        1.8305276858        2.7394734521
C               14.9328139001        8.4994223421        5.0758930251
C                7.1265436124        8.6824797651        0.4030553706
C               -0.1056912843       17.1819073585        1.9333669749
C               -3.8502898687       10.3299530483        4.2697865479
C                3.9559762382       10.5130076920        6.6062046294
C               11.1638164993        0.6710330967        2.0154408204
C               15.7906285818        9.3326315074        4.3518606634
C                5.9760586961        9.0087687894        6.6882806040
C                0.1869816786       18.3414012472        2.6573993366
C               -5.0007765411       10.0036652399        4.9938191796
C                4.8137932805        9.6798030399        0.3209793960
C               11.5176341202        0.8362437724        0.6528975411
C               15.4706440197        9.5564380769        2.9893163119
C                5.9422303200        8.6197541814        5.3257387882
C                0.5407961344       18.1761897724        4.0199436881
C               -5.0346087094       10.3926856258        6.3563624589
C                4.4938109355        9.4559995029        1.6835212118
C               11.5804302636        2.0918295277        0.0643630927
C               14.3518772625        8.9830297515        2.4007794001
C                6.9982001681        7.9375715150        4.7372040755
C                0.6035933365       16.9206051770        4.6084805999
C               -3.9786376204       11.0748615589        6.9448969073
C                3.3750384924       10.0294048838        2.2720559245
C               10.6520063429        4.2775581065        3.0903040045
C               12.9231921828        7.0861305712        5.4267256805
C                9.3553033986        7.6487534139        0.7538861952
C               -0.3248270022       14.7348780139        1.5825343195
C               -1.6215291850       11.3636871475        3.9189559955
C                1.9463630644       11.9263071102        6.2553738048
C                4.4486630077       14.4486640127        0.7478861560
C               -3.7604168994       15.6407833518        3.0842706190
C               -0.6882715797        7.9354208752        5.4207331906
C               15.4255241674        4.5637751121        3.9249893810
C               10.2885785819       11.0769871839        6.2613738440
C                7.2164118575        3.3716497649        1.5885268094
C                5.5904988915       14.6705581561        5.5792319405
C               -4.5234898120       16.5186586204        0.9064041707
C               -1.0669965093        6.8356650174        3.2427561713
C               16.5673229077        4.3418722192        6.1028558293
C                9.9098266052       12.1767931379        1.4300280595
C                6.4533578114        2.4937864258        3.7665038287
C                6.6158625302       15.6524791185        6.1697573102
C               -5.8865051766       16.9157306518        1.4968394628
C               -0.7293448552        5.4567403942        3.8334035843
C               17.5927050563        3.3600023035        5.5124205372
C               10.2475132838       13.5557445783        0.8395026898
C                5.0903482309        2.0967390244        3.1758564157
C                5.4543610216       15.4146145684        1.4046251943
C               -5.0998119838       16.0287215050        3.7411278122
C               -0.3545617895        6.5815165015        6.0774845340
C               16.4311860055        3.5977940200        3.2681321878
C               10.6222672950       12.4309224902        5.6046348057
C                5.8770413805        2.9836987339        0.9317754660
C                6.8087132624       15.3861975621        0.6695526404
C               -5.7521403114       17.2157587827        3.0057920168
C               -1.0563560006        5.4228819142        5.3423868440
C               17.7853546069        3.6263797556        4.0034679832
C                9.9204813252       13.5896174333        6.3397073596
C                5.2245314997        1.7966098251        1.6668731560
C                3.0595667932       14.5106090155        1.4076991071
C               -3.1195234632       14.4068086731        3.7441378802
C                0.0599367659        9.1074566077        6.0805401745
C               14.0364240300        4.5018177698        3.2651221198
C               11.0367726353        9.9049670752        5.6015608929
C                7.8573204032        4.6056350657        0.9287198255
N                4.3087646851       14.7812380836        6.3170338217
N               -3.9784766615       15.3533316566        1.6441962479
N               -0.3303030471        7.8902734817        3.9806055601
N               15.2856135780        4.2312039711        5.3650637521
N               10.6465453373       11.1221187180        0.6922261783
N                6.9983288016        3.6590859110        3.0286544399
N                3.0095597388       13.9093390687        2.7852655499
N               -2.5738101722       14.6641389550        5.1216761971
N               -0.4357788472        9.4513931325        0.4488352894
N               13.9864219457        5.1030844838        1.8875838029
N               10.5410611140        9.5610247224        4.2239944501
N                8.4030359776        4.3483010141        6.5604247106
C               10.7045395416       18.5408063577        3.5046300000
O               10.7044946506       18.5407906656        2.3320774053
O               10.7045483973       18.5407596349        4.6771825947



     Writing config-only to output data dir ./tmp/c_MOF_CO2_free.save/ :
     XML data file
     NEW-OLD atomic charge density approx. for the potential

     Check: negative core charge=   -0.000001

     negative rho (up, down):  2.780E-07 0.000E+00

     total cpu time spent up to now is     2756.4 secs

     per-process dynamical memory:   368.5 Mb

     Self-consistent Calculation

     iteration #  1     ecut=    60.00 Ry     beta= 0.30
     Davidson diagonalization with overlap
     ethr =  1.00E-06,  avg # of iterations =  3.0

     Threshold (ethr) on eigenvalues was too large:
     Diagonalizing with lowered threshold

     Davidson diagonalization with overlap
     ethr =  6.28E-09,  avg # of iterations =  5.0

     negative rho (up, down):  2.812E-07 0.000E+00

     total cpu time spent up to now is     2928.4 secs

     total energy              =   -2938.08602480 Ry
     estimated scf accuracy    <       0.00005315 Ry

     iteration #  2     ecut=    60.00 Ry     beta= 0.30
     Davidson diagonalization with overlap
     ethr =  8.71E-09,  avg # of iterations =  2.0

     negative rho (up, down):  2.853E-07 0.000E+00

     total cpu time spent up to now is     2998.7 secs

     total energy              =   -2938.08602462 Ry
     estimated scf accuracy    <       0.00001730 Ry

     iteration #  3     ecut=    60.00 Ry     beta= 0.30
     Davidson diagonalization with overlap
     ethr =  2.84E-09,  avg # of iterations =  4.0

     negative rho (up, down):  2.855E-07 0.000E+00

     total cpu time spent up to now is     3078.9 secs

     total energy              =   -2938.08602742 Ry
     estimated scf accuracy    <       0.00000253 Ry

     iteration #  4     ecut=    60.00 Ry     beta= 0.30
     Davidson diagonalization with overlap
     ethr =  4.15E-10,  avg # of iterations =  5.0

     negative rho (up, down):  2.858E-07 0.000E+00

     total cpu time spent up to now is     3152.2 secs

     total energy              =   -2938.08602792 Ry
     estimated scf accuracy    <       0.00000058 Ry

     iteration #  5     ecut=    60.00 Ry     beta= 0.30
     Davidson diagonalization with overlap
     ethr =  9.58E-11,  avg # of iterations =  5.0

     negative rho (up, down):  2.860E-07 0.000E+00

     total cpu time spent up to now is     3235.2 secs

     total energy              =   -2938.08602797 Ry
     estimated scf accuracy    <       0.00000019 Ry

     iteration #  6     ecut=    60.00 Ry     beta= 0.30
     Davidson diagonalization with overlap
     ethr =  3.19E-11,  avg # of iterations =  6.0

     negative rho (up, down):  2.860E-07 0.000E+00

     total cpu time spent up to now is     3324.5 secs

     total energy              =   -2938.08602803 Ry
     estimated scf accuracy    <       0.00000007 Ry

     iteration #  7     ecut=    60.00 Ry     beta= 0.30
     Davidson diagonalization with overlap
     ethr =  1.22E-11,  avg # of iterations =  5.0

     negative rho (up, down):  2.860E-07 0.000E+00

     total cpu time spent up to now is     3400.7 secs

     total energy              =   -2938.08602804 Ry
     estimated scf accuracy    <          8.4E-09 Ry

     iteration #  8     ecut=    60.00 Ry     beta= 0.30
     Davidson diagonalization with overlap
     ethr =  1.38E-12,  avg # of iterations =  6.0

     negative rho (up, down):  2.860E-07 0.000E+00

     total cpu time spent up to now is     3496.5 secs

     End of self-consistent calculation

          k = 0.0000 0.0000 0.0000 (154911 PWs)   bands (ev):

   -25.0866 -24.1411 -22.3626 -22.3625 -22.2202 -22.2201 -22.2198 -22.2198
   -20.4293 -20.4289 -20.4142 -20.4138 -20.4136 -20.4133 -19.9389 -19.9386
   -19.9226 -19.9224 -19.9222 -19.9221 -18.6458 -18.6449 -18.6442 -18.6433
   -18.6411 -18.6400 -18.0665 -18.0654 -18.0649 -18.0638 -18.0618 -18.0604
   -17.0268 -17.0182 -17.0177 -16.3847 -16.3634 -16.3629 -15.3437 -15.3436
   -15.3341 -15.2812 -15.2812 -15.2720 -14.7248 -14.7193 -14.7159 -14.7154
   -14.7148 -14.7104 -14.6073 -14.5514 -14.5509 -14.4410 -14.4321 -14.4316
   -14.2038 -14.2033 -14.1934 -13.0449 -12.9699 -12.9694 -12.6744 -12.6723
   -12.6658 -12.6597 -12.6580 -12.6534 -11.6265 -11.6253 -11.6180 -11.5902
   -11.5890 -11.5843 -11.5646 -11.5609 -11.5481 -11.1865 -11.1861 -11.1550
   -10.7184 -10.7160 -10.7096 -10.7071 -10.6926 -10.6896 -10.6778 -10.5942
   -10.5937 -10.2796 -10.2792 -10.2362  -9.8368  -9.7366  -9.6855  -9.6817
    -9.6762  -9.6408  -9.6370  -9.6317  -9.4585  -9.4581  -9.3809  -8.8772
    -8.8769  -8.7242  -8.6927  -8.6857  -8.6763  -8.6746  -8.6602  -8.6588
    -8.6557  -8.6547  -8.5058  -8.5054  -8.4122  -8.3659  -8.3631  -8.3388
    -8.3019  -8.2902  -8.2872  -8.0083  -8.0081  -7.8168  -7.6852  -7.6805
    -7.6803  -7.6054  -7.6050  -7.5341  -7.4485  -7.4484  -7.3991  -7.3492
    -7.3453  -7.3442  -7.3180  -7.3176  -7.2288  -7.2198  -7.2193  -7.2142
    -7.1639  -7.1637  -7.0693  -7.0650  -7.0592  -7.0585  -6.9886  -6.9884
    -6.8966  -6.8961  -6.8938  -6.8345  -6.8325  -6.6927  -6.6375  -6.5850
    -6.5846  -6.5329  -6.5137  -6.5102  -6.4999  -6.4861  -6.4842  -6.4531
    -6.4507  -6.4316  -6.4093  -6.3040  -6.2778  -6.1806  -6.1793  -6.1630
    -6.1622  -6.0869  -6.0850  -6.0692  -6.0536  -6.0533  -6.0271  -5.9951
    -5.9951  -5.9568  -5.9186  -5.9152  -5.8941  -5.6414  -5.6277  -5.6216
    -5.6189  -5.6144  -5.6114  -5.5157  -5.5152  -5.4096  -5.3938  -5.3929
    -5.3915  -5.3166  -5.3163  -5.2937  -5.2575  -5.2358  -5.2335  -5.2110
    -5.2098  -5.2076  -5.1112  -5.1100  -5.0920  -5.0690  -5.0659  -5.0234
    -5.0200  -5.0159  -4.9064  -4.9059  -4.8918  -4.7497  -4.7493  -4.6435
    -4.4344  -4.4331  -4.3746  -4.3723  -4.3527  -4.3413  -4.2802  -4.2693
    -4.2678  -4.2056  -4.2049  -4.1642  -4.1344  -4.1307  -4.1238  -4.1117
    -4.0858  -4.0804  -3.9539  -3.9509  -3.9375  -3.9291  -3.8863  -3.8826
    -3.8376  -3.8344  -3.7781  -3.7764  -3.7262  -3.7226  -3.7226  -3.6108
    -3.5895  -3.5880  -3.3843  -3.3838  -3.3690  -3.3687  -3.3449  -3.0759
    -3.0759  -3.0207  -3.0012  -2.9824  -2.9823  -2.7673  -2.7660  -2.6929
    -2.6917  -2.5518  -2.5480  -2.4546  -2.4544  -2.4477  -2.4474  -2.3846
    -2.3769  -2.1314  -2.1310  -2.1191  -2.1187  -2.0942  -2.0838  -1.9122
    -1.9120  -1.8846  -1.8844  -1.7320  -1.7316  -1.5214  -1.5210  -1.4496
    -1.3047  -1.3021  -1.2993  -1.2638  -1.2630  -1.2597  -0.6192  -0.6188
    -0.5414

          k = 0.0000 0.0000-1.5660 (154844 PWs)   bands (ev):

   -25.0865 -24.1413 -22.3029 -22.3028 -22.3025 -22.3025 -22.1888 -22.1888
   -20.4613 -20.4610 -20.4609 -20.4606 -20.4000 -20.3996 -19.9175 -19.9172
   -19.9171 -19.9168 -19.8939 -19.8938 -18.6090 -18.6079 -18.6064 -18.6052
   -18.6038 -18.6027 -18.1183 -18.1170 -18.1149 -18.1136 -18.1126 -18.1113
   -17.0080 -17.0078 -17.0071 -16.3728 -16.3724 -16.3700 -15.3388 -15.3388
   -15.3293 -15.2765 -15.2764 -15.2672 -14.7158 -14.7155 -14.7120 -14.7120
   -14.7109 -14.7072 -14.5669 -14.5664 -14.5518 -14.4837 -14.4833 -14.4785
   -14.1956 -14.1952 -14.1886 -13.0082 -13.0077 -12.9784 -12.6826 -12.6778
   -12.6747 -12.6695 -12.6641 -12.6612 -11.6034 -11.6029 -11.5591 -11.5480
   -11.5463 -11.5389 -11.4931 -11.4893 -11.4826 -11.1418 -11.1414 -11.0814
   -10.7491 -10.7476 -10.7429 -10.7236 -10.7215 -10.7169 -10.6062 -10.6058
   -10.5362 -10.2828 -10.2825 -10.2489  -9.8213  -9.6992  -9.6963  -9.6867
    -9.6580  -9.6569  -9.6459  -9.6447  -9.6407  -9.4831  -9.2016  -9.2013
    -8.8236  -8.7644  -8.7633  -8.7612  -8.7600  -8.7451  -8.7264  -8.7206
    -8.6553  -8.6547  -8.4404  -8.3422  -8.3419  -8.1381  -8.1353  -8.1220
    -8.0577  -8.0556  -8.0492  -7.9493  -7.8984  -7.8982  -7.8368  -7.8363
    -7.7719  -7.5896  -7.5042  -7.5038  -7.4450  -7.4434  -7.4426  -7.4083
    -7.3922  -7.3903  -7.3182  -7.3098  -7.2692  -7.2692  -7.2550  -7.1910
    -7.1885  -7.1710  -7.1505  -7.1473  -7.1087  -7.1066  -6.9387  -6.9074
    -6.8538  -6.8534  -6.7595  -6.7573  -6.7223  -6.6365  -6.6344  -6.6241
    -6.5733  -6.5726  -6.5479  -6.5031  -6.4754  -6.4751  -6.4460  -6.4435
    -6.3971  -6.3964  -6.3856  -6.3613  -6.3072  -6.3060  -6.2780  -6.2780
    -6.2564  -6.2561  -6.2293  -6.1831  -6.1785  -6.1779  -6.1165  -6.1044
    -6.1010  -6.0999  -6.0974  -6.0824  -6.0220  -6.0140  -5.9664  -5.9622
    -5.8486  -5.8158  -5.8107  -5.5478  -5.5473  -5.5298  -5.4835  -5.4037
    -5.4030  -5.3718  -5.3704  -5.3115  -5.2880  -5.2868  -5.2826  -5.2352
    -5.2006  -5.1996  -5.1150  -5.1141  -5.0606  -5.0591  -5.0549  -5.0117
    -5.0099  -5.0049  -4.7243  -4.7240  -4.7172  -4.6729  -4.6726  -4.5917
    -4.5043  -4.4110  -4.3850  -4.3842  -4.3637  -4.3633  -4.2593  -4.2585
    -4.2570  -4.1280  -4.1250  -4.1164  -4.0962  -4.0931  -4.0726  -4.0625
    -4.0598  -4.0587  -3.9602  -3.9256  -3.9213  -3.8875  -3.8846  -3.8110
    -3.8094  -3.6788  -3.5925  -3.5615  -3.5611  -3.4152  -3.4138  -3.4060
    -3.3986  -3.3966  -3.3870  -3.3548  -3.3540  -3.2779  -3.2776  -3.0104
    -2.9270  -2.9167  -2.9166  -2.8919  -2.8919  -2.8051  -2.7595  -2.7594
    -2.7221  -2.7218  -2.7063  -2.4322  -2.4278  -2.3929  -2.3927  -2.3856
    -2.3854  -2.1958  -2.1607  -2.1603  -2.1185  -2.0734  -2.0730  -1.9263
    -1.9261  -1.9112  -1.9110  -1.9074  -1.8725  -1.5060  -1.5056  -1.4472
    -1.2988  -1.2968  -1.2885  -1.2646  -1.2628  -1.2576  -0.5973  -0.5792
    -0.5788

     highest occupied level (ev):    -0.5414

!    total energy              =   -2938.08602804 Ry
     estimated scf accuracy    <          2.5E-09 Ry

     The total energy is the sum of the following terms:
     one-electron contribution =   -5752.54099692 Ry
     hartree contribution      =    3071.67080200 Ry
     xc contribution           =    -693.78765559 Ry
     ewald contribution        =    1356.46456157 Ry
     one-center paw contrib.   =    -919.89273909 Ry

     convergence has been achieved in   8 iterations

     negative rho (up, down):  2.860E-07 0.000E+00

     Forces acting on atoms (cartesian axes, Ry/au):

     atom    1 type  1   force =    -0.00042467   -0.00036333   -0.00048065
     atom    2 type  1   force =     0.00052132   -0.00017447   -0.00048393
     atom    3 type  1   force =    -0.00011080    0.00056125   -0.00047785
     atom    4 type  1   force =    -0.00041175    0.00036424    0.00048393
     atom    5 type  1   force =    -0.00010231   -0.00054944    0.00048065
     atom    6 type  1   force =     0.00054146    0.00018467    0.00047785
     atom    7 type  2   force =     0.00159747   -0.00041464   -0.00062902
     atom    8 type  2   force =    -0.00043671    0.00158231   -0.00062760
     atom    9 type  2   force =    -0.00115767   -0.00117568   -0.00062898
     atom   10 type  2   force =     0.00158868    0.00041295    0.00062760
     atom   11 type  2   force =    -0.00115782    0.00117613    0.00062902
     atom   12 type  2   force =    -0.00043933   -0.00159041    0.00062898
     atom   13 type  2   force =    -0.00028496   -0.00049865   -0.00047180
     atom   14 type  2   force =     0.00057899   -0.00000362   -0.00047520
     atom   15 type  2   force =    -0.00029042    0.00049832   -0.00047301
     atom   16 type  2   force =    -0.00029263    0.00049961    0.00047520
     atom   17 type  2   force =    -0.00028936   -0.00049611    0.00047180
     atom   18 type  2   force =     0.00057677   -0.00000235    0.00047301
     atom   19 type  2   force =    -0.00035737   -0.00008481    0.00005161
     atom   20 type  2   force =     0.00025249   -0.00026807    0.00005170
     atom   21 type  2   force =     0.00010163    0.00034477    0.00005498
     atom   22 type  2   force =    -0.00035840    0.00008463   -0.00005170
     atom   23 type  2   force =     0.00010524   -0.00035190   -0.00005161
     atom   24 type  2   force =     0.00024776    0.00026039   -0.00005498
     atom   25 type  3   force =     0.00063460    0.00001375   -0.00025569
     atom   26 type  3   force =    -0.00032925    0.00054290   -0.00025542
     atom   27 type  3   force =    -0.00030441   -0.00055428   -0.00025511
     atom   28 type  3   force =     0.00063479   -0.00001369    0.00025542
     atom   29 type  3   force =    -0.00030539    0.00055645    0.00025569
     atom   30 type  3   force =    -0.00032782   -0.00054077    0.00025511
     atom   31 type  3   force =     0.00006969    0.00000148    0.00002112
     atom   32 type  3   force =    -0.00003630    0.00005784    0.00002067
     atom   33 type  3   force =    -0.00003103   -0.00005888    0.00002099
     atom   34 type  3   force =     0.00006824   -0.00000252   -0.00002067
     atom   35 type  3   force =    -0.00003357    0.00006109   -0.00002112
     atom   36 type  3   force =    -0.00003547   -0.00005631   -0.00002099
     atom   37 type  3   force =    -0.00106370    0.00044243    0.00083288
     atom   38 type  3   force =     0.00014715   -0.00114123    0.00083230
     atom   39 type  3   force =     0.00091584    0.00070074    0.00083263
     atom   40 type  3   force =    -0.00106191   -0.00044318   -0.00083230
     atom   41 type  3   force =     0.00091501   -0.00069998   -0.00083288
     atom   42 type  3   force =     0.00014894    0.00114352   -0.00083263
     atom   43 type  3   force =    -0.00009590   -0.00007046   -0.00006191
     atom   44 type  3   force =     0.00010796   -0.00004548   -0.00006127
     atom   45 type  3   force =    -0.00001472    0.00011758   -0.00006199
     atom   46 type  3   force =    -0.00009336    0.00007076    0.00006127
     atom   47 type  3   force =    -0.00001307   -0.00011828    0.00006191
     atom   48 type  3   force =     0.00010918    0.00004604    0.00006199
     atom   49 type  3   force =    -0.00055100   -0.00040261   -0.00036861
     atom   50 type  3   force =     0.00062221   -0.00028069   -0.00036548
     atom   51 type  3   force =    -0.00006298    0.00066723   -0.00037728
     atom   52 type  3   force =    -0.00055419    0.00039851    0.00036548
     atom   53 type  3   force =    -0.00007317   -0.00067849    0.00036861
     atom   54 type  3   force =     0.00060933    0.00027908    0.00037728
     atom   55 type  3   force =    -0.00010017   -0.00020816    0.00062577
     atom   56 type  3   force =     0.00023246    0.00002001    0.00062746
     atom   57 type  3   force =    -0.00013185    0.00017196    0.00062329
     atom   58 type  3   force =    -0.00009890    0.00021132   -0.00062746
     atom   59 type  3   force =    -0.00013019   -0.00019083   -0.00062577
     atom   60 type  3   force =     0.00021485   -0.00002820   -0.00062329
     atom   61 type  3   force =    -0.00017053    0.00000585    0.00275839
     atom   62 type  3   force =     0.00005414   -0.00014109    0.00275745
     atom   63 type  3   force =     0.00008909    0.00012764    0.00275423
     atom   64 type  3   force =    -0.00014926   -0.00002365   -0.00275745
     atom   65 type  3   force =     0.00009033   -0.00014476   -0.00275839
     atom   66 type  3   force =     0.00006599    0.00014097   -0.00275423
     atom   67 type  3   force =     0.00002046    0.00034532   -0.00051956
     atom   68 type  3   force =    -0.00030814   -0.00015520   -0.00050892
     atom   69 type  3   force =     0.00028392   -0.00019528   -0.00050783
     atom   70 type  3   force =     0.00001966   -0.00034445    0.00050892
     atom   71 type  3   force =     0.00028882    0.00019038    0.00051956
     atom   72 type  3   force =    -0.00031108    0.00014824    0.00050783
     atom   73 type  3   force =     0.00132685    0.00056817   -0.00226925
     atom   74 type  3   force =    -0.00118421    0.00087026   -0.00227304
     atom   75 type  3   force =    -0.00016939   -0.00146474   -0.00227207
     atom   76 type  3   force =     0.00134577   -0.00059042    0.00227304
     atom   77 type  3   force =    -0.00017137    0.00143317    0.00226925
     atom   78 type  3   force =    -0.00118381   -0.00087907    0.00227207
     atom   79 type  3   force =     0.00029335    0.00036303   -0.00019964
     atom   80 type  3   force =    -0.00047371    0.00007755   -0.00017865
     atom   81 type  3   force =     0.00015382   -0.00041720   -0.00019452
     atom   82 type  3   force =     0.00030402   -0.00037146    0.00017865
     atom   83 type  3   force =     0.00016772    0.00043556    0.00019964
     atom   84 type  3   force =    -0.00043822   -0.00007539    0.00019452
     atom   85 type  3   force =     0.00049053    0.00042325    0.00058909
     atom   86 type  3   force =    -0.00049492    0.00014739    0.00075231
     atom   87 type  3   force =     0.00010126   -0.00049975    0.00075700
     atom   88 type  3   force =     0.00037511   -0.00035492   -0.00075231
     atom   89 type  3   force =     0.00012128    0.00063643   -0.00058909
     atom   90 type  3   force =    -0.00048342   -0.00016218   -0.00075700
     atom   91 type  3   force =     0.00047546    0.00004959    0.00016332
     atom   92 type  3   force =    -0.00025598    0.00037481    0.00009671
     atom   93 type  3   force =    -0.00018979   -0.00036485    0.00012837
     atom   94 type  3   force =     0.00045259   -0.00003428   -0.00009671
     atom   95 type  3   force =    -0.00019479    0.00043655   -0.00016332
     atom   96 type  3   force =    -0.00022107   -0.00034679   -0.00012837
     atom   97 type  3   force =     0.00022989    0.00005294   -0.00071821
     atom   98 type  3   force =    -0.00011160    0.00010483   -0.00081668
     atom   99 type  3   force =    -0.00009915   -0.00009384   -0.00082149
     atom  100 type  3   force =     0.00014659   -0.00004424    0.00081668
     atom  101 type  3   force =    -0.00006910    0.00022556    0.00071821
     atom  102 type  3   force =    -0.00003170   -0.00013278    0.00082149
     atom  103 type  3   force =    -0.00045612    0.00020484   -0.00016079
     atom  104 type  3   force =     0.00004282   -0.00048627   -0.00016210
     atom  105 type  3   force =     0.00040319    0.00028613   -0.00016133
     atom  106 type  3   force =    -0.00044253   -0.00020605    0.00016210
     atom  107 type  3   force =     0.00040546   -0.00029259    0.00016079
     atom  108 type  3   force =     0.00004620    0.00049224    0.00016133
     atom  109 type  3   force =    -0.00015362    0.00001333    0.00013981
     atom  110 type  3   force =     0.00005922   -0.00013795    0.00013976
     atom  111 type  3   force =     0.00008762    0.00012590    0.00013623
     atom  112 type  3   force =    -0.00014908   -0.00001768   -0.00013976
     atom  113 type  3   force =     0.00008835   -0.00012637   -0.00013981
     atom  114 type  3   force =     0.00006522    0.00013883   -0.00013623
     atom  115 type  3   force =     0.00001184   -0.00004348   -0.00024947
     atom  116 type  3   force =     0.00004052    0.00003309   -0.00024572
     atom  117 type  3   force =    -0.00004639    0.00001455   -0.00024905
     atom  118 type  3   force =     0.00000839    0.00005164    0.00024572
     atom  119 type  3   force =    -0.00004357   -0.00001148    0.00024947
     atom  120 type  3   force =     0.00003579   -0.00003290    0.00024905
     atom  121 type  3   force =    -0.00006256   -0.00011534   -0.00024509
     atom  122 type  3   force =     0.00013139   -0.00000070   -0.00024090
     atom  123 type  3   force =    -0.00006427    0.00011457   -0.00024689
     atom  124 type  3   force =    -0.00006630    0.00011344    0.00024090
     atom  125 type  3   force =    -0.00006861   -0.00011185    0.00024509
     atom  126 type  3   force =     0.00013136    0.00000163    0.00024689
     atom  127 type  4   force =     0.00021834    0.00015201    0.00007372
     atom  128 type  4   force =    -0.00023773    0.00010992    0.00007343
     atom  129 type  4   force =     0.00002316   -0.00026478    0.00007413
     atom  130 type  4   force =     0.00021406   -0.00015092   -0.00007343
     atom  131 type  4   force =     0.00002247    0.00026509   -0.00007372
     atom  132 type  4   force =    -0.00024088   -0.00011233   -0.00007413
     atom  133 type  4   force =    -0.00049362    0.00021370    0.00015150
     atom  134 type  4   force =     0.00006179   -0.00053548    0.00015173
     atom  135 type  4   force =     0.00043143    0.00032182    0.00015255
     atom  136 type  4   force =    -0.00049464   -0.00021423   -0.00015173
     atom  137 type  4   force =     0.00043188   -0.00032064   -0.00015150
     atom  138 type  4   force =     0.00006299    0.00053454   -0.00015255
     atom  139 type  4   force =     0.00049473   -0.00013905    0.00005996
     atom  140 type  4   force =    -0.00012625    0.00049766    0.00005986
     atom  141 type  4   force =    -0.00036654   -0.00036142    0.00005766
     atom  142 type  4   force =     0.00049412    0.00013949   -0.00005986
     atom  143 type  4   force =    -0.00036779    0.00035892   -0.00005996
     atom  144 type  4   force =    -0.00012973   -0.00049814   -0.00005766
     atom  145 type  4   force =     0.00009792   -0.00049330    0.00014552
     atom  146 type  4   force =     0.00037758    0.00032997    0.00014502
     atom  147 type  4   force =    -0.00047482    0.00016072    0.00014639
     atom  148 type  4   force =     0.00009697    0.00049197   -0.00014502
     atom  149 type  4   force =    -0.00047617   -0.00016185   -0.00014552
     atom  150 type  4   force =     0.00037660   -0.00033084   -0.00014639
     atom  151 type  4   force =    -0.00014348    0.00014905    0.00008042
     atom  152 type  4   force =    -0.00005701   -0.00019982    0.00007963
     atom  153 type  4   force =     0.00020313    0.00005017    0.00007989
     atom  154 type  4   force =    -0.00014454   -0.00014929   -0.00007963
     atom  155 type  4   force =     0.00020082   -0.00004973   -0.00008042
     atom  156 type  4   force =    -0.00005812    0.00020100   -0.00007989
     atom  157 type  4   force =    -0.00027419   -0.00019647    0.00095655
     atom  158 type  4   force =     0.00030632   -0.00014084    0.00095585
     atom  159 type  4   force =    -0.00003263    0.00033623    0.00095704
     atom  160 type  4   force =    -0.00027514    0.00019486   -0.00095585
     atom  161 type  4   force =    -0.00003305   -0.00033569   -0.00095655
     atom  162 type  4   force =     0.00030750    0.00013985   -0.00095704
     atom  163 type  4   force =    -0.00073901   -0.00030791    0.00060967
     atom  164 type  4   force =     0.00063792   -0.00049003    0.00060885
     atom  165 type  4   force =     0.00010439    0.00078884    0.00060471
     atom  166 type  4   force =    -0.00074334    0.00030744   -0.00060885
     atom  167 type  4   force =     0.00010285   -0.00079396   -0.00060967
     atom  168 type  4   force =     0.00063096    0.00048482   -0.00060471
     atom  169 type  4   force =    -0.00031017   -0.00014573   -0.00012740
     atom  170 type  4   force =     0.00029371   -0.00019611   -0.00012895
     atom  171 type  4   force =     0.00002664    0.00035180   -0.00012916
     atom  172 type  4   force =    -0.00031669    0.00015631    0.00012895
     atom  173 type  4   force =     0.00002887   -0.00034148    0.00012740
     atom  174 type  4   force =     0.00029135    0.00019897    0.00012916
     atom  175 type  4   force =    -0.00009636   -0.00035236    0.00094659
     atom  176 type  4   force =     0.00037592    0.00007867    0.00094890
     atom  177 type  4   force =    -0.00024891    0.00027414    0.00092866
     atom  178 type  4   force =    -0.00011983    0.00036489   -0.00094890
     atom  179 type  4   force =    -0.00025698   -0.00025963   -0.00094659
     atom  180 type  4   force =     0.00036187   -0.00007849   -0.00092866
     atom  181 type  4   force =     0.00069900    0.00011945    0.00034681
     atom  182 type  4   force =    -0.00043926    0.00056020    0.00032976
     atom  183 type  4   force =    -0.00025182   -0.00062605    0.00034054
     atom  184 type  4   force =     0.00070477   -0.00010031   -0.00032976
     atom  185 type  4   force =    -0.00024605    0.00066508   -0.00034681
     atom  186 type  4   force =    -0.00041626   -0.00053111   -0.00034054
     atom  187 type  4   force =     0.00009337    0.00048363   -0.00066174
     atom  188 type  4   force =    -0.00044827   -0.00017401   -0.00063736
     atom  189 type  4   force =     0.00037211   -0.00029110   -0.00065663
     atom  190 type  4   force =     0.00007343   -0.00047522    0.00063736
     atom  191 type  4   force =     0.00037215    0.00032268    0.00066174
     atom  192 type  4   force =    -0.00043815    0.00017670    0.00065663
     atom  193 type  4   force =     0.00060439    0.00056302   -0.00045033
     atom  194 type  4   force =    -0.00069332    0.00021242   -0.00047155
     atom  195 type  4   force =     0.00018354   -0.00076704   -0.00044644
     atom  196 type  4   force =     0.00053062   -0.00049422    0.00047155
     atom  197 type  4   force =     0.00018539    0.00080493    0.00045033
     atom  198 type  4   force =    -0.00075605   -0.00022457    0.00044644
     atom  199 type  4   force =    -0.00027181   -0.00003581    0.00010455
     atom  200 type  4   force =     0.00016137   -0.00021539    0.00011014
     atom  201 type  4   force =     0.00010452    0.00024944    0.00010072
     atom  202 type  4   force =    -0.00026722    0.00003206   -0.00011014
     atom  203 type  4   force =     0.00010490   -0.00025330   -0.00010455
     atom  204 type  4   force =     0.00016376    0.00021524   -0.00010072
     atom  205 type  5   force =    -0.00047189   -0.00073576    0.00061499
     atom  206 type  5   force =     0.00087342   -0.00004287    0.00061989
     atom  207 type  5   force =    -0.00040032    0.00077187    0.00061646
     atom  208 type  5   force =    -0.00047383    0.00073497   -0.00061989
     atom  209 type  5   force =    -0.00040124   -0.00077654   -0.00061499
     atom  210 type  5   force =     0.00086862    0.00003925   -0.00061646
     atom  211 type  5   force =    -0.00012234   -0.00016801   -0.00014560
     atom  212 type  5   force =     0.00019957   -0.00002013   -0.00014536
     atom  213 type  5   force =    -0.00008489    0.00018518   -0.00014907
     atom  214 type  5   force =    -0.00011722    0.00016277    0.00014536
     atom  215 type  5   force =    -0.00008433   -0.00018996    0.00014560
     atom  216 type  5   force =     0.00020281    0.00001908    0.00014907
     atom  217 type  4   force =    -0.00009781   -0.00016940    0.00000000
     atom  218 type  2   force =    -0.00012004   -0.00016578   -0.00324661
     atom  219 type  2   force =    -0.00008355   -0.00018685    0.00324661

     Total force =     0.014834     Total SCF correction =     0.000102
     Energy error            =      3.5E-04 Ry
     Gradient error          =      3.2E-03 Ry/Bohr

     number of scf cycles    =   4
     number of bfgs steps    =   3

     energy             old  =   -2938.0856733418 Ry
     energy             new  =   -2938.0860280376 Ry

     CASE: energy            _new < energy            _old

     new trust radius        =       0.0046297853 bohr
     new conv_thr            =       0.0000000032 Ry


ATOMIC_POSITIONS (angstrom)
Mg              10.2303428001        5.4284513519        5.8288509565
Mg              12.1373056248        6.1455639665        1.1559943322
Mg              10.5627926423        7.4385213018        3.4924359646
Mg              -0.7464382968       13.5839969878        5.8532656678
Mg              -0.4139946261       11.5739624302        1.1804090435
Mg               1.1605520928       12.8669074140        3.5168240354
O               11.4423669115        4.4600912871        0.1810084256
O               12.3699498076        7.6793051017        2.5174295946
O                9.1182121690        6.8730043362        4.8538459183
O                0.4654983977       14.5523433277        4.4918304054
O               -1.8586310980       12.1394260683        6.8282515744
O                1.3930902710       11.3331055435        2.1554140817
O               10.8172026936        5.4823385129        2.6550077517
O               11.7972386568        6.6267748395        4.9914204786
O               10.3160901171        6.9032911980        0.3185877627
O               -0.1596639721       13.5300957911        2.0178395214
O               -0.6607569224       12.1091415870        4.3542522483
O                0.8203804887       12.3856417082        6.6906722373
O               10.2346967519        4.0570012492        4.2814474119
O               13.3228570605        6.8349981487        6.6178690694
O                9.3729495035        8.1203999294        1.9450280356
O               -0.7421464986       14.9554317397        0.3913909306
O               -1.6038822309       10.8920080118        2.7278125881
O                2.3459978760       12.1774123430        5.0642319644
H               10.5680436614        1.7587044041        3.7759931627
H               15.1465650922        8.2728429271        6.1124136489
H                7.2158984276        8.9808949428        1.4395710510
H               -0.4087904097       17.2537316134        0.8968463511
H               -3.7609391390       10.0315464812        3.2332668373
H                4.1697339554       10.7395988209        5.5696889490
H                0.8058294898       18.9792274026        0.0620124748
H               -5.8625724464       10.2206874610        2.3984306756
H                5.0567486141        8.8249589905        4.7348521627
H               11.7826612086        0.0332070604        4.6108293244
H               16.0335783300       10.1874825105        6.9472475252
H                5.1142643661        8.7917522557        2.2744078373
H               11.8826449345        2.2061446128        6.0386148504
H               14.1017659440        9.1876039194        1.3657733258
H                6.9460916576        7.6186938657        3.7021941096
H                0.9058154221       16.8062895054        5.6434866742
H               -4.0307451881       11.3937446839        0.9706451496
H                3.1249366026        9.8248387653        3.3070658904
H                2.7232843044       15.5477948104        1.4785703717
H               -3.8495934886       13.5969708359        3.8149930512
H                1.1263083686        8.8801072070        6.1514121892
H               13.7001189028        3.4646396626        3.1942669488
H               12.1031431264       10.1323307945        5.5306896283
H                7.1272442453        5.4154652631        0.8578478108
H                3.6223878484       14.1515784302        5.8993928075
H               -3.0899955392       15.0737165267        1.2265606606
H               -0.5323775480        8.7995176434        3.5629479930
H               14.5992192112        4.8608436289        5.7826993394
H               10.4444325000       10.2128691142        1.1098671925
H                7.8867945943        3.9387063408        3.4463120070
H                6.0020719251       13.6426896715        5.6224455958
H               -3.8391303587       17.3890285415        0.9496135737
H               -2.1629389159        6.9930797592        3.2860281983
H               16.9789056435        5.3697298517        6.0596464263
H                8.8138798690       12.0192915983        1.3868144042
H                7.1376541801        1.6233798316        3.7232318017
H                5.4030993323       14.9014665506        4.5285394862
H               -4.6298481078       16.2409684268        6.8650051483
H               -0.7733348901        6.8824369976        2.1920834401
H               16.3800152935        4.1109181364        0.1442548517
H               10.2034989203       12.1299545562        2.4807205138
H                6.3470327249        2.7714908383        4.8171765599
H                5.0330059523       16.4276185015        1.3760154845
H               -5.7664119221       15.1573268400        3.7124667508
H                0.7333805249        6.4399036027        6.0488957048
H               16.0098360579        2.5848042068        3.2967932492
H               11.7102319698       12.5725202627        5.6332445155
H                5.2104298554        3.8550779666        0.9603642952
H                5.5888728665       15.1434936546        2.4558369966
H               -4.9323270325       16.2808115493        4.7922961745
H               -0.6566049182        6.6004900011        0.1193911555
H               16.5657599121        3.8688852646        2.2169638255
H               10.3202137737       12.4118527081        4.5534230034
H                6.0444944776        2.7316084611        6.8898688445
H                7.2652695640       14.3980347378        0.8072216669
H               -5.1249552360       18.1053576486        3.1437351819
H               -2.1403811966        5.5215130998        5.4800776414
H               18.2421772862        4.6143373967        3.8655248181
H                8.8364290655       13.4909253767        6.2020383331
H                5.8519612101        0.9071320599        1.5291823586
H                7.4976120603       16.1192824035        1.1019524320
H               -6.7312627925       17.4457357383        3.4388378422
H               -0.7660194693        4.4601387371        5.7752411610
H               18.4740817334        2.8934232913        3.5704221578
H               10.2109020221       14.5527637137        5.9073075680
H                4.2456031854        1.5666770483        1.2340188390
H                6.2513102872       16.6747704185        6.0198208308
H               -6.5895028817       16.0888781097        1.3468061707
H                0.3382939078        5.2614642559        3.6832953382
H               17.2281286022        2.3377621609        5.6624538293
H               11.3151196411       13.7511787249        0.9894391692
H                4.3874147529        2.9237032460        3.3259646618
H                7.5693343227       15.5583461502        5.6403556068
H               -6.2816150712       17.7882542093        0.9672686168
H               -1.2876578830        4.6784204732        3.3036365486
H               18.5458875699        3.4540888761        6.0419913832
H                9.6892558456       14.3344088882        1.3689043932
H                4.6954599209        1.2240657986        3.7056234514
H                2.3389864692       13.9789595250        0.7869806266
H               -2.2988239644       14.0486120296        3.1234014690
H               -0.0401979734        9.9973210037        5.4598211578
H               13.3158668876        5.0334660627        3.8858585310
H               10.9366408325        9.0151014639        6.2222793734
H                8.6780329456        4.9638480357        1.5494388422
H                4.8353506550       13.4139841847        0.8697397030
H               -3.0576942543       16.4929951286        3.2061578529
H               -1.7776672366        8.1179136012        5.5425683860
H               15.8121998930        5.5984566631        3.8031021471
H                9.1991757424       10.8945285958        6.1395202970
H                7.9191530227        2.5194518142        1.4666916140
H                3.6972815471       13.1539836102        2.8548530517
H               -2.2634628729       15.6373822271        5.1912800962
H               -1.4338014023        9.2335139688        0.5184321344
H               14.6741016938        5.8584747650        1.8179799038
H                9.5430431939        9.7789315498        4.1544069483
H                8.7133583644        3.3750485460        6.4908278656
H                3.2888324145       14.6040468970        3.4783900200
H               -3.3150572951       14.5586072919        5.8148220867
H                0.0262406377        8.8622091358        1.1419654256
H               14.2656524060        4.4083798134        1.1944379133
H               11.0030594037       10.1502358682        3.5308699800
H                7.6617779264        4.4538296267        5.8672945744
C               11.3170735643        3.2774691830        0.8011755359
C               13.4567634148        8.1621320793        3.1375942215
C                8.1566716811        7.5728305551        5.4740158904
C                0.3402320224       15.7349650096        3.8716657785
C               -2.8201652095       11.4396077947        6.2080844641
C                2.4799277988       10.8503001638        1.5352441096
C               10.9491640332        3.1268840097        2.1848190007
C               13.7711284362        7.9188083677        4.5212394919
C                8.2102148933        7.9667397374        6.8576577739
C               -0.0276750040       15.8855512483        2.4880205081
C               -2.7666210295       11.0456962078        4.8244409993
C                2.7942915512       11.0936245368        0.1516022261
C               10.8718552070        1.8305925100        2.7394249076
C               14.9324039496        8.5000027596        5.0758443659
C                7.1262457672        8.6818319635        0.4030062596
C               -0.1049836527       17.1818425397        1.9334156341
C               -3.8505879858       10.3305990505        4.2698350924
C                3.9555641482       10.5124258497        6.6062537404
C               11.1637838485        0.6708906830        2.0154522896
C               15.7907677061        9.3326734511        4.3518717152
C                5.9759522278        9.0088674778        6.6882927443
C                0.1869484408       18.3415427043        2.6573882848
C               -5.0008835495       10.0035657566        4.9938077104
C                4.8139319813        9.6797601799        0.3209672557
C               11.5175365120        0.8363061674        0.6530314079
C               15.4706388248        9.5563210878        2.9894493707
C                5.9423352419        8.6198083205        5.3258721887
C                0.5406974164       18.1761267790        4.0198106293
C               -5.0345058696       10.3926322922        6.3562285921
C                4.4938053604        9.4561174375        1.6833878113
C               11.5801420612        2.0917712131        0.0652881887
C               14.3520712708        8.9828078637        2.4017037211
C                6.9982946524        7.9378500677        4.7381295849
C                0.6033041719       16.9206622493        4.6075562789
C               -3.9785440212       11.0745828111        6.9439718113
C                3.3752324840       10.0296259859        2.2711304151
C               10.6513971999        4.2770525276        3.0906196058
C               12.9239360356        7.0858531856        5.4270411223
C                9.3551716600        7.6495305034        0.7541986702
C               -0.3254391516       14.7353835165        1.5822188777
C               -1.6216624577       11.3629068247        3.9186403942
C                1.9471019130       11.9265815660        6.2550613298
C                4.4482598043       14.4485460065        0.7479283973
C               -3.7601086632       15.6404901963        3.0843200142
C               -0.6881734043        7.9358304333        5.4207763518
C               15.4251161693        4.5638954748        3.9249399858
C               10.2886779872       11.0765789964        6.2613316027
C                7.2167174575        3.3719395664        1.5884836482
C                5.5904560722       14.6704293392        5.5809870937
C               -4.5233416597       16.5186789408        0.9081590185
C               -1.0670819539        6.8357758199        3.2445052074
C               16.5672664296        4.3420106830        6.1011009815
C                9.9097364561       12.1766916468        1.4282729063
C                6.4534964915        2.4937678299        3.7647547926
C                6.6165098312       15.6526056947        6.1700125010
C               -5.8869111448       16.9162163076        1.4970736421
C               -0.7295580971        5.4561495119        3.8336542790
C               17.5933286306        3.3598935525        5.5121863579
C               10.2472992514       13.5563684455        0.8392474990
C                5.0899431327        2.0962589103        3.1756057210
C                5.4544944670       15.4149709808        1.4032431042
C               -5.1001662660       16.0286460703        3.7397493749
C               -0.3543221599        6.5812431787        6.0761011296
C               16.4312978182        3.5974494853        3.2695106251
C               10.6225092345       12.4312162636        5.6060168958
C                5.8766848612        2.9837695978        0.9331588704
C                6.8093603748       15.3867016114        0.6692317519
C               -5.7528446403       17.2160431885        3.0054562452
C               -1.0562482579        5.4221185944        5.3420696164
C               17.7859530740        3.6259119917        4.0038037548
C                9.9205942885       13.5904298737        6.3400282481
C                5.2238165740        1.7963214731        1.6671903836
C                3.0593272499       14.5105263692        1.4077288211
C               -3.1193382390       14.4066482532        3.7441681914
C                0.0599829478        9.1076997998        6.0805660273
C               14.0361924903        4.5018979686        3.2650918086
C               11.0368208332        9.9047183015        5.6015311789
C                7.8575079229        4.6057966565        0.9286939727
N                4.3083021949       14.7803958303        6.3175117787
N               -3.9775172484       15.3533541250        1.6446755433
N               -0.3308030092        7.8910875709        3.9810806064
N               15.2851533296        4.2320460814        5.3645844567
N               10.6460471697       11.1212970631        0.6917482213
N                6.9992838045        3.6590599758        3.0281793936
N                3.0094764484       13.9092239674        2.7850827896
N               -2.5736769395       14.6641287584        5.1214922217
N               -0.4358376802        9.4515173623        0.4486486612
N               13.9863464989        5.1031947684        1.8877677783
N               10.5410030785        9.5608950401        4.2241772104
N                8.4031729802        4.3483121781        6.5606113388
C               10.7044535039       18.5406573360        3.5046300000
O               10.7043865836       18.5406408563        2.3326645338
O               10.7044726921       18.5405911415        4.6765954662



     Writing config-only to output data dir ./tmp/c_MOF_CO2_free.save/ :
     XML data file
     NEW-OLD atomic charge density approx. for the potential

     Check: negative core charge=   -0.000001

     negative rho (up, down):  2.737E-07 0.000E+00

     total cpu time spent up to now is     3531.8 secs

     per-process dynamical memory:   382.1 Mb

     Self-consistent Calculation

     iteration #  1     ecut=    60.00 Ry     beta= 0.30
     Davidson diagonalization with overlap
     ethr =  1.00E-06,  avg # of iterations =  2.0

     Threshold (ethr) on eigenvalues was too large:
     Diagonalizing with lowered threshold

     Davidson diagonalization with overlap
     ethr =  5.86E-09,  avg # of iterations =  5.0

     negative rho (up, down):  2.767E-07 0.000E+00

     total cpu time spent up to now is     3702.4 secs

     total energy              =   -2938.08631262 Ry
     estimated scf accuracy    <       0.00005052 Ry

     iteration #  2     ecut=    60.00 Ry     beta= 0.30
     Davidson diagonalization with overlap
     ethr =  8.28E-09,  avg # of iterations =  2.0

     negative rho (up, down):  2.814E-07 0.000E+00

     total cpu time spent up to now is     3769.1 secs

     total energy              =   -2938.08631384 Ry
     estimated scf accuracy    <       0.00001807 Ry

     iteration #  3     ecut=    60.00 Ry     beta= 0.30
     Davidson diagonalization with overlap
     ethr =  2.96E-09,  avg # of iterations =  3.5

     negative rho (up, down):  2.824E-07 0.000E+00

     total cpu time spent up to now is     3843.9 secs

     total energy              =   -2938.08631641 Ry
     estimated scf accuracy    <       0.00000224 Ry

     iteration #  4     ecut=    60.00 Ry     beta= 0.30
     Davidson diagonalization with overlap
     ethr =  3.68E-10,  avg # of iterations =  4.0

     negative rho (up, down):  2.829E-07 0.000E+00

     total cpu time spent up to now is     3920.6 secs

     total energy              =   -2938.08631686 Ry
     estimated scf accuracy    <       0.00000030 Ry

     iteration #  5     ecut=    60.00 Ry     beta= 0.30
     Davidson diagonalization with overlap
     ethr =  4.95E-11,  avg # of iterations =  6.0

     negative rho (up, down):  2.829E-07 0.000E+00

     total cpu time spent up to now is     4000.8 secs

     total energy              =   -2938.08631688 Ry
     estimated scf accuracy    <       0.00000007 Ry

     iteration #  6     ecut=    60.00 Ry     beta= 0.30
     Davidson diagonalization with overlap
     ethr =  1.09E-11,  avg # of iterations =  6.0

     negative rho (up, down):  2.828E-07 0.000E+00

     total cpu time spent up to now is     4092.1 secs

     total energy              =   -2938.08631692 Ry
     estimated scf accuracy    <       0.00000002 Ry

     iteration #  7     ecut=    60.00 Ry     beta= 0.30
     Davidson diagonalization with overlap
     ethr =  4.01E-12,  avg # of iterations =  6.0

     negative rho (up, down):  2.827E-07 0.000E+00

     total cpu time spent up to now is     4184.1 secs

     total energy              =   -2938.08631693 Ry
     estimated scf accuracy    <       0.00000001 Ry

     iteration #  8     ecut=    60.00 Ry     beta= 0.30
     Davidson diagonalization with overlap
     ethr =  2.05E-12,  avg # of iterations =  6.5

     negative rho (up, down):  2.825E-07 0.000E+00

     total cpu time spent up to now is     4273.7 secs

     End of self-consistent calculation

          k = 0.0000 0.0000 0.0000 (154911 PWs)   bands (ev):

   -25.0939 -24.1487 -22.3606 -22.3606 -22.2187 -22.2187 -22.2184 -22.2184
   -20.4262 -20.4258 -20.4107 -20.4104 -20.4102 -20.4099 -19.9386 -19.9382
   -19.9222 -19.9221 -19.9219 -19.9217 -18.6483 -18.6474 -18.6468 -18.6459
   -18.6437 -18.6425 -18.0687 -18.0675 -18.0671 -18.0660 -18.0640 -18.0626
   -17.0291 -17.0205 -17.0201 -16.3874 -16.3660 -16.3656 -15.3464 -15.3464
   -15.3369 -15.2839 -15.2838 -15.2746 -14.7249 -14.7192 -14.7158 -14.7155
   -14.7148 -14.7104 -14.6097 -14.5540 -14.5536 -14.4433 -14.4343 -14.4339
   -14.2054 -14.2050 -14.1950 -13.0459 -12.9711 -12.9707 -12.6751 -12.6729
   -12.6665 -12.6604 -12.6587 -12.6541 -11.6266 -11.6255 -11.6182 -11.5912
   -11.5900 -11.5851 -11.5651 -11.5614 -11.5488 -11.1880 -11.1877 -11.1565
   -10.7199 -10.7176 -10.7111 -10.7080 -10.6941 -10.6911 -10.6792 -10.5951
   -10.5947 -10.2808 -10.2804 -10.2379  -9.8340  -9.7371  -9.6859  -9.6821
    -9.6765  -9.6412  -9.6374  -9.6321  -9.4599  -9.4596  -9.3792  -8.8764
    -8.8762  -8.7246  -8.6945  -8.6875  -8.6781  -8.6765  -8.6624  -8.6621
    -8.6607  -8.6586  -8.5048  -8.5045  -8.4130  -8.3666  -8.3637  -8.3393
    -8.3026  -8.2908  -8.2879  -8.0078  -8.0076  -7.8146  -7.6867  -7.6811
    -7.6808  -7.6060  -7.6057  -7.5345  -7.4488  -7.4487  -7.4004  -7.3499
    -7.3461  -7.3450  -7.3188  -7.3184  -7.2287  -7.2204  -7.2199  -7.2152
    -7.1644  -7.1643  -7.0698  -7.0658  -7.0595  -7.0588  -6.9899  -6.9897
    -6.8971  -6.8965  -6.8941  -6.8343  -6.8324  -6.6935  -6.6381  -6.5855
    -6.5851  -6.5335  -6.5137  -6.5102  -6.5008  -6.4866  -6.4847  -6.4535
    -6.4512  -6.4322  -6.4099  -6.3050  -6.2789  -6.1813  -6.1801  -6.1646
    -6.1636  -6.0887  -6.0868  -6.0679  -6.0535  -6.0534  -6.0291  -5.9945
    -5.9944  -5.9559  -5.9214  -5.9180  -5.8968  -5.6424  -5.6288  -5.6222
    -5.6196  -5.6151  -5.6121  -5.5153  -5.5147  -5.4101  -5.3924  -5.3915
    -5.3909  -5.3174  -5.3172  -5.2922  -5.2576  -5.2354  -5.2331  -5.2111
    -5.2093  -5.2071  -5.1120  -5.1107  -5.0925  -5.0697  -5.0667  -5.0240
    -5.0208  -5.0167  -4.9047  -4.9043  -4.8902  -4.7504  -4.7500  -4.6444
    -4.4344  -4.4331  -4.3737  -4.3715  -4.3518  -4.3405  -4.2807  -4.2695
    -4.2680  -4.2042  -4.2036  -4.1631  -4.1342  -4.1304  -4.1234  -4.1123
    -4.0862  -4.0808  -3.9548  -3.9518  -3.9384  -3.9291  -3.8845  -3.8808
    -3.8344  -3.8313  -3.7761  -3.7735  -3.7256  -3.7222  -3.7215  -3.6098
    -3.5891  -3.5876  -3.3824  -3.3819  -3.3682  -3.3679  -3.3447  -3.0763
    -3.0763  -3.0225  -3.0031  -2.9829  -2.9828  -2.7683  -2.7671  -2.6935
    -2.6924  -2.5528  -2.5492  -2.4566  -2.4565  -2.4498  -2.4496  -2.3844
    -2.3769  -2.1324  -2.1321  -2.1202  -2.1198  -2.0952  -2.0850  -1.9119
    -1.9117  -1.8844  -1.8843  -1.7320  -1.7317  -1.5223  -1.5219  -1.4507
    -1.3028  -1.3002  -1.2974  -1.2618  -1.2610  -1.2577  -0.6192  -0.6188
    -0.5416

          k = 0.0000 0.0000-1.5660 (154844 PWs)   bands (ev):

   -25.0938 -24.1489 -22.3011 -22.3010 -22.3008 -22.3007 -22.1876 -22.1875
   -20.4582 -20.4579 -20.4579 -20.4575 -20.3966 -20.3961 -19.9170 -19.9167
   -19.9166 -19.9163 -19.8935 -19.8933 -18.6117 -18.6106 -18.6090 -18.6079
   -18.6065 -18.6053 -18.1204 -18.1191 -18.1169 -18.1156 -18.1147 -18.1134
   -17.0103 -17.0101 -17.0095 -16.3755 -16.3751 -16.3727 -15.3416 -15.3416
   -15.3320 -15.2791 -15.2791 -15.2698 -14.7156 -14.7153 -14.7119 -14.7119
   -14.7106 -14.7070 -14.5694 -14.5690 -14.5545 -14.4859 -14.4855 -14.4807
   -14.1974 -14.1970 -14.1903 -13.0092 -13.0089 -12.9796 -12.6832 -12.6783
   -12.6752 -12.6701 -12.6647 -12.6617 -11.6048 -11.6044 -11.5605 -11.5488
   -11.5471 -11.5398 -11.4938 -11.4901 -11.4835 -11.1435 -11.1431 -11.0830
   -10.7509 -10.7494 -10.7447 -10.7254 -10.7233 -10.7187 -10.6071 -10.6067
   -10.5374 -10.2840 -10.2837 -10.2502  -9.8186  -9.6993  -9.6964  -9.6868
    -9.6582  -9.6572  -9.6460  -9.6449  -9.6407  -9.4848  -9.2003  -9.2000
    -8.8240  -8.7662  -8.7651  -8.7630  -8.7618  -8.7455  -8.7282  -8.7224
    -8.6608  -8.6602  -8.4394  -8.3417  -8.3415  -8.1397  -8.1369  -8.1237
    -8.0593  -8.0572  -8.0508  -7.9491  -7.8975  -7.8973  -7.8370  -7.8366
    -7.7720  -7.5897  -7.5045  -7.5041  -7.4448  -7.4443  -7.4433  -7.4088
    -7.3927  -7.3907  -7.3185  -7.3096  -7.2695  -7.2694  -7.2551  -7.1912
    -7.1887  -7.1707  -7.1506  -7.1474  -7.1089  -7.1068  -6.9382  -6.9073
    -6.8545  -6.8542  -6.7599  -6.7577  -6.7227  -6.6367  -6.6346  -6.6250
    -6.5734  -6.5729  -6.5479  -6.5031  -6.4755  -6.4752  -6.4462  -6.4438
    -6.3969  -6.3962  -6.3845  -6.3609  -6.3081  -6.3070  -6.2781  -6.2781
    -6.2574  -6.2571  -6.2296  -6.1829  -6.1773  -6.1767  -6.1133  -6.1011
    -6.0975  -6.0964  -6.0939  -6.0796  -6.0263  -6.0137  -5.9705  -5.9663
    -5.8530  -5.8197  -5.8146  -5.5484  -5.5480  -5.5297  -5.4835  -5.4045
    -5.4038  -5.3729  -5.3716  -5.3114  -5.2889  -5.2878  -5.2840  -5.2361
    -5.2003  -5.1993  -5.1158  -5.1148  -5.0612  -5.0596  -5.0554  -5.0122
    -5.0105  -5.0056  -4.7227  -4.7224  -4.7155  -4.6739  -4.6736  -4.5921
    -4.5042  -4.4104  -4.3846  -4.3838  -4.3631  -4.3627  -4.2597  -4.2591
    -4.2575  -4.1277  -4.1248  -4.1161  -4.0963  -4.0932  -4.0730  -4.0612
    -4.0586  -4.0576  -3.9611  -3.9270  -3.9228  -3.8888  -3.8860  -3.8120
    -3.8075  -3.6771  -3.5925  -3.5608  -3.5604  -3.4152  -3.4137  -3.4059
    -3.3981  -3.3959  -3.3866  -3.3548  -3.3540  -3.2778  -3.2775  -3.0102
    -2.9271  -2.9168  -2.9167  -2.8922  -2.8922  -2.8059  -2.7597  -2.7596
    -2.7221  -2.7218  -2.7070  -2.4343  -2.4299  -2.3938  -2.3937  -2.3865
    -2.3864  -2.1975  -2.1622  -2.1618  -2.1203  -2.0748  -2.0745  -1.9262
    -1.9260  -1.9109  -1.9108  -1.9071  -1.8724  -1.5070  -1.5067  -1.4483
    -1.2969  -1.2949  -1.2867  -1.2626  -1.2608  -1.2556  -0.5976  -0.5794
    -0.5790

     highest occupied level (ev):    -0.5416

!    total energy              =   -2938.08631695 Ry
     estimated scf accuracy    <          5.9E-10 Ry

     The total energy is the sum of the following terms:
     one-electron contribution =   -5752.78324282 Ry
     hartree contribution      =    3071.79329856 Ry
     xc contribution           =    -693.80652170 Ry
     ewald contribution        =    1356.60377858 Ry
     one-center paw contrib.   =    -919.89362956 Ry

     convergence has been achieved in   8 iterations

     negative rho (up, down):  2.825E-07 0.000E+00

     Forces acting on atoms (cartesian axes, Ry/au):

     atom    1 type  1   force =    -0.00022565   -0.00013381   -0.00026895
     atom    2 type  1   force =     0.00022407   -0.00012434   -0.00026899
     atom    3 type  1   force =    -0.00000419    0.00026840   -0.00026586
     atom    4 type  1   force =    -0.00021972    0.00013188    0.00026899
     atom    5 type  1   force =    -0.00000306   -0.00026232    0.00026895
     atom    6 type  1   force =     0.00023454    0.00013057    0.00026586
     atom    7 type  2   force =     0.00127328   -0.00048869   -0.00029989
     atom    8 type  2   force =    -0.00021106    0.00134232   -0.00029790
     atom    9 type  2   force =    -0.00106016   -0.00085785   -0.00029992
     atom   10 type  2   force =     0.00126802    0.00048838    0.00029790
     atom   11 type  2   force =    -0.00105986    0.00085835    0.00029989
     atom   12 type  2   force =    -0.00021284   -0.00134705    0.00029992
     atom   13 type  2   force =    -0.00036816   -0.00065778   -0.00013894
     atom   14 type  2   force =     0.00075586    0.00000657   -0.00014207
     atom   15 type  2   force =    -0.00038332    0.00064619   -0.00014395
     atom   16 type  2   force =    -0.00037224    0.00065788    0.00014207
     atom   17 type  2   force =    -0.00038558   -0.00064773    0.00013894
     atom   18 type  2   force =     0.00075128   -0.00000887    0.00014395
     atom   19 type  2   force =    -0.00040487   -0.00022447    0.00000940
     atom   20 type  2   force =     0.00039713   -0.00023796    0.00000934
     atom   21 type  2   force =     0.00000352    0.00045556    0.00000785
     atom   22 type  2   force =    -0.00040464    0.00022494   -0.00000934
     atom   23 type  2   force =     0.00000804   -0.00046286   -0.00000940
     atom   24 type  2   force =     0.00039277    0.00023083   -0.00000785
     atom   25 type  3   force =     0.00057946   -0.00002042    0.00010215
     atom   26 type  3   force =    -0.00027196    0.00051224    0.00010236
     atom   27 type  3   force =    -0.00030652   -0.00049047    0.00010112
     atom   28 type  3   force =     0.00057959    0.00002059   -0.00010236
     atom   29 type  3   force =    -0.00030741    0.00049162   -0.00010215
     atom   30 type  3   force =    -0.00027150   -0.00051068   -0.00010112
     atom   31 type  3   force =    -0.00001426    0.00018536    0.00006170
     atom   32 type  3   force =    -0.00015337   -0.00010646    0.00006102
     atom   33 type  3   force =     0.00017020   -0.00007821    0.00006135
     atom   34 type  3   force =    -0.00001551   -0.00018605   -0.00006102
     atom   35 type  3   force =     0.00016765    0.00008033   -0.00006170
     atom   36 type  3   force =    -0.00015283    0.00010829   -0.00006135
     atom   37 type  3   force =    -0.00094312    0.00038668    0.00073100
     atom   38 type  3   force =     0.00013531   -0.00100950    0.00073113
     atom   39 type  3   force =     0.00080731    0.00062418    0.00073102
     atom   40 type  3   force =    -0.00094191   -0.00038757   -0.00073113
     atom   41 type  3   force =     0.00080644   -0.00062343   -0.00073100
     atom   42 type  3   force =     0.00013690    0.00101125   -0.00073102
     atom   43 type  3   force =    -0.00013521    0.00003131   -0.00000590
     atom   44 type  3   force =     0.00003814   -0.00012978   -0.00000589
     atom   45 type  3   force =     0.00009228    0.00009950   -0.00000711
     atom   46 type  3   force =    -0.00013146   -0.00003186    0.00000589
     atom   47 type  3   force =     0.00009472   -0.00010144    0.00000590
     atom   48 type  3   force =     0.00004003    0.00012966    0.00000711
     atom   49 type  3   force =    -0.00033554   -0.00036994   -0.00025781
     atom   50 type  3   force =     0.00048929   -0.00011310   -0.00025438
     atom   51 type  3   force =    -0.00014276    0.00047615   -0.00026691
     atom   52 type  3   force =    -0.00034259    0.00036719    0.00025438
     atom   53 type  3   force =    -0.00015260   -0.00047556    0.00025781
     atom   54 type  3   force =     0.00048373    0.00011444    0.00026691
     atom   55 type  3   force =    -0.00002564   -0.00017998    0.00088424
     atom   56 type  3   force =     0.00017860    0.00007301    0.00088405
     atom   57 type  3   force =    -0.00014625    0.00010054    0.00087956
     atom   58 type  3   force =    -0.00002607    0.00019118   -0.00088405
     atom   59 type  3   force =    -0.00014304   -0.00011219   -0.00088424
     atom   60 type  3   force =     0.00016020   -0.00007639   -0.00087956
     atom   61 type  3   force =    -0.00023686    0.00013617    0.00189217
     atom   62 type  3   force =    -0.00001580   -0.00026969    0.00188361
     atom   63 type  3   force =     0.00023464    0.00012418    0.00189423
     atom   64 type  3   force =    -0.00022566   -0.00014853   -0.00188361
     atom   65 type  3   force =     0.00023635   -0.00013704   -0.00189217
     atom   66 type  3   force =    -0.00000978    0.00026529   -0.00189423
     atom   67 type  3   force =     0.00006080    0.00026158   -0.00070454
     atom   68 type  3   force =    -0.00024834   -0.00007248   -0.00069735
     atom   69 type  3   force =     0.00018959   -0.00018502   -0.00069688
     atom   70 type  3   force =     0.00006140   -0.00025131    0.00069735
     atom   71 type  3   force =     0.00019614    0.00018344    0.00070454
     atom   72 type  3   force =    -0.00025503    0.00007168    0.00069688
     atom   73 type  3   force =     0.00117989    0.00043002   -0.00162433
     atom   74 type  3   force =    -0.00098415    0.00080965   -0.00163622
     atom   75 type  3   force =    -0.00021844   -0.00125873   -0.00162493
     atom   76 type  3   force =     0.00119325   -0.00044747    0.00163622
     atom   77 type  3   force =    -0.00021754    0.00123682    0.00162433
     atom   78 type  3   force =    -0.00098087   -0.00081854    0.00162493
     atom   79 type  3   force =     0.00036827    0.00030353   -0.00014603
     atom   80 type  3   force =    -0.00043614    0.00017230   -0.00013420
     atom   81 type  3   force =     0.00005903   -0.00043978   -0.00014393
     atom   82 type  3   force =     0.00036728   -0.00029156    0.00013420
     atom   83 type  3   force =     0.00007872    0.00047070    0.00014603
     atom   84 type  3   force =    -0.00041038   -0.00016877    0.00014393
     atom   85 type  3   force =     0.00041273    0.00038716    0.00054314
     atom   86 type  3   force =    -0.00047132    0.00010839    0.00068566
     atom   87 type  3   force =     0.00011764   -0.00044741    0.00068665
     atom   88 type  3   force =     0.00032953   -0.00035398   -0.00068566
     atom   89 type  3   force =     0.00012892    0.00055101   -0.00054314
     atom   90 type  3   force =    -0.00044629   -0.00012182   -0.00068665
     atom   91 type  3   force =     0.00044442    0.00014422    0.00011423
     atom   92 type  3   force =    -0.00032412    0.00029202    0.00005835
     atom   93 type  3   force =    -0.00008949   -0.00039755    0.00008397
     atom   94 type  3   force =     0.00041496   -0.00013469   -0.00005835
     atom   95 type  3   force =    -0.00009731    0.00045698   -0.00011423
     atom   96 type  3   force =    -0.00029954   -0.00027628   -0.00008397
     atom   97 type  3   force =     0.00008781   -0.00002682   -0.00067692
     atom   98 type  3   force =     0.00002455    0.00004086   -0.00076229
     atom   99 type  3   force =    -0.00009417    0.00004250   -0.00076426
     atom  100 type  3   force =     0.00002312    0.00004169    0.00076229
     atom  101 type  3   force =    -0.00006714    0.00006264    0.00067692
     atom  102 type  3   force =     0.00008389   -0.00006030    0.00076426
     atom  103 type  3   force =    -0.00036170    0.00020633   -0.00009447
     atom  104 type  3   force =    -0.00000001   -0.00040938   -0.00009741
     atom  105 type  3   force =     0.00035739    0.00020667   -0.00009680
     atom  106 type  3   force =    -0.00035453   -0.00020469    0.00009741
     atom  107 type  3   force =     0.00035954   -0.00021008    0.00009447
     atom  108 type  3   force =     0.00000028    0.00041285    0.00009680
     atom  109 type  3   force =    -0.00012884   -0.00010552    0.00028348
     atom  110 type  3   force =     0.00015130   -0.00005872    0.00028471
     atom  111 type  3   force =    -0.00002628    0.00016417    0.00028021
     atom  112 type  3   force =    -0.00012651    0.00010167   -0.00028471
     atom  113 type  3   force =    -0.00002696   -0.00016434   -0.00028348
     atom  114 type  3   force =     0.00015531    0.00005932   -0.00028021
     atom  115 type  3   force =     0.00003622   -0.00004948   -0.00027194
     atom  116 type  3   force =     0.00003024    0.00005397   -0.00026785
     atom  117 type  3   force =    -0.00006129   -0.00000406   -0.00027108
     atom  118 type  3   force =     0.00003162    0.00005317    0.00026785
     atom  119 type  3   force =    -0.00006097    0.00000663    0.00027194
     atom  120 type  3   force =     0.00002713   -0.00005511    0.00027108
     atom  121 type  3   force =    -0.00005213   -0.00008516   -0.00019096
     atom  122 type  3   force =     0.00009982   -0.00000456   -0.00018721
     atom  123 type  3   force =    -0.00004497    0.00008944   -0.00019291
     atom  124 type  3   force =    -0.00005386    0.00008417    0.00018721
     atom  125 type  3   force =    -0.00004769   -0.00008773    0.00019096
     atom  126 type  3   force =     0.00009994    0.00000578    0.00019291
     atom  127 type  4   force =     0.00009809    0.00051486   -0.00007685
     atom  128 type  4   force =    -0.00049359   -0.00017669   -0.00007715
     atom  129 type  4   force =     0.00039457   -0.00034064   -0.00007503
     atom  130 type  4   force =     0.00009378   -0.00051581    0.00007715
     atom  131 type  4   force =     0.00039683    0.00034238    0.00007685
     atom  132 type  4   force =    -0.00049229    0.00017139    0.00007503
     atom  133 type  4   force =    -0.00009631    0.00012366    0.00002514
     atom  134 type  4   force =    -0.00005736   -0.00014631    0.00002544
     atom  135 type  4   force =     0.00015678    0.00002072    0.00002366
     atom  136 type  4   force =    -0.00009803   -0.00012283   -0.00002544
     atom  137 type  4   force =     0.00015525   -0.00002157   -0.00002514
     atom  138 type  4   force =    -0.00006045    0.00014614   -0.00002366
     atom  139 type  4   force =     0.00008003   -0.00038515    0.00002903
     atom  140 type  4   force =     0.00029297    0.00026124    0.00002939
     atom  141 type  4   force =    -0.00037248    0.00012303    0.00003070
     atom  142 type  4   force =     0.00007975    0.00038434   -0.00002939
     atom  143 type  4   force =    -0.00037356   -0.00012326   -0.00002903
     atom  144 type  4   force =     0.00029279   -0.00026106   -0.00003070
     atom  145 type  4   force =     0.00027881   -0.00023971    0.00021614
     atom  146 type  4   force =     0.00006832    0.00036066    0.00021507
     atom  147 type  4   force =    -0.00034638   -0.00012282    0.00021488
     atom  148 type  4   force =     0.00027818    0.00023950   -0.00021507
     atom  149 type  4   force =    -0.00034699    0.00012160   -0.00021614
     atom  150 type  4   force =     0.00006682   -0.00036139   -0.00021488
     atom  151 type  4   force =    -0.00016379   -0.00054908    0.00020876
     atom  152 type  4   force =     0.00055681    0.00013109    0.00020836
     atom  153 type  4   force =    -0.00039251    0.00041705    0.00020939
     atom  154 type  4   force =    -0.00016488    0.00054776   -0.00020836
     atom  155 type  4   force =    -0.00039362   -0.00041639   -0.00020876
     atom  156 type  4   force =     0.00055743   -0.00013140   -0.00020939
     atom  157 type  4   force =    -0.00012605    0.00010945    0.00021735
     atom  158 type  4   force =    -0.00003143   -0.00016439    0.00021646
     atom  159 type  4   force =     0.00015887    0.00005489    0.00021672
     atom  160 type  4   force =    -0.00012665   -0.00010941   -0.00021646
     atom  161 type  4   force =     0.00015781   -0.00005444   -0.00021735
     atom  162 type  4   force =    -0.00003190    0.00016503   -0.00021672
     atom  163 type  4   force =    -0.00045593    0.00050230    0.00015914
     atom  164 type  4   force =    -0.00020414   -0.00065002    0.00015725
     atom  165 type  4   force =     0.00065741    0.00014493    0.00016289
     atom  166 type  4   force =    -0.00046087   -0.00050180   -0.00015725
     atom  167 type  4   force =     0.00066297   -0.00014370   -0.00015914
     atom  168 type  4   force =    -0.00020320    0.00064180   -0.00016289
     atom  169 type  4   force =    -0.00016133   -0.00011363   -0.00024309
     atom  170 type  4   force =     0.00019509   -0.00008685   -0.00024596
     atom  171 type  4   force =    -0.00001927    0.00021666   -0.00024572
     atom  172 type  4   force =    -0.00017276    0.00012553    0.00024596
     atom  173 type  4   force =    -0.00001774   -0.00019653    0.00024309
     atom  174 type  4   force =     0.00019727    0.00009165    0.00024572
     atom  175 type  4   force =    -0.00001563   -0.00057375    0.00026635
     atom  176 type  4   force =     0.00052442    0.00025988    0.00026850
     atom  177 type  4   force =    -0.00048539    0.00032386    0.00025249
     atom  178 type  4   force =    -0.00003715    0.00058411   -0.00026850
     atom  179 type  4   force =    -0.00048907   -0.00030042   -0.00026635
     atom  180 type  4   force =     0.00052316   -0.00025843   -0.00025249
     atom  181 type  4   force =     0.00050634    0.00006650    0.00022464
     atom  182 type  4   force =    -0.00030932    0.00042045    0.00021900
     atom  183 type  4   force =    -0.00020146   -0.00043756    0.00021800
     atom  184 type  4   force =     0.00051878   -0.00005765   -0.00021900
     atom  185 type  4   force =    -0.00019558    0.00047175   -0.00022464
     atom  186 type  4   force =    -0.00027821   -0.00039325   -0.00021800
     atom  187 type  4   force =     0.00005964    0.00059241   -0.00015285
     atom  188 type  4   force =    -0.00052324   -0.00025963   -0.00013162
     atom  189 type  4   force =     0.00048414   -0.00031222   -0.00014658
     atom  190 type  4   force =     0.00003677   -0.00058296    0.00013162
     atom  191 type  4   force =     0.00048322    0.00034786    0.00015285
     atom  192 type  4   force =    -0.00051246    0.00026316    0.00014658
     atom  193 type  4   force =     0.00047902    0.00054591   -0.00034875
     atom  194 type  4   force =    -0.00063348    0.00011824   -0.00035414
     atom  195 type  4   force =     0.00022507   -0.00066248   -0.00034474
     atom  196 type  4   force =     0.00041914   -0.00048949    0.00035414
     atom  197 type  4   force =     0.00023326    0.00068780    0.00034875
     atom  198 type  4   force =    -0.00068626   -0.00013632    0.00034474
     atom  199 type  4   force =    -0.00026145   -0.00002640    0.00007542
     atom  200 type  4   force =     0.00015575   -0.00021672    0.00008380
     atom  201 type  4   force =     0.00010918    0.00024333    0.00007374
     atom  202 type  4   force =    -0.00026556    0.00002653   -0.00008380
     atom  203 type  4   force =     0.00010786   -0.00023962   -0.00007542
     atom  204 type  4   force =     0.00015615    0.00021622   -0.00007374
     atom  205 type  5   force =    -0.00032778   -0.00041016    0.00052817
     atom  206 type  5   force =     0.00052628   -0.00008890    0.00053443
     atom  207 type  5   force =    -0.00018617    0.00049248    0.00053032
     atom  208 type  5   force =    -0.00034013    0.00041132   -0.00053443
     atom  209 type  5   force =    -0.00019132   -0.00048894   -0.00052817
     atom  210 type  5   force =     0.00051959    0.00008501   -0.00053032
     atom  211 type  5   force =    -0.00014707   -0.00023041   -0.00003939
     atom  212 type  5   force =     0.00027314   -0.00001169   -0.00003686
     atom  213 type  5   force =    -0.00012717    0.00024143   -0.00004195
     atom  214 type  5   force =    -0.00014669    0.00023070    0.00003686
     atom  215 type  5   force =    -0.00012601   -0.00024257    0.00003939
     atom  216 type  5   force =     0.00027267    0.00001059    0.00004195
     atom  217 type  4   force =    -0.00010036   -0.00017382    0.00000000
     atom  218 type  2   force =    -0.00011918   -0.00016316   -0.00551059
     atom  219 type  2   force =    -0.00008171   -0.00018479    0.00551059

     Total force =     0.013578     Total SCF correction =     0.000037
     Energy error            =      2.9E-04 Ry
     Gradient error          =      5.5E-03 Ry/Bohr

     number of scf cycles    =   5
     number of bfgs steps    =   4

     energy             old  =   -2938.0860280376 Ry
     energy             new  =   -2938.0863169497 Ry

     CASE: energy            _new < energy            _old

     new trust radius        =       0.0069446780 bohr
     new conv_thr            =       0.0000000029 Ry


ATOMIC_POSITIONS (angstrom)
Mg              10.2297247150        5.4279459050        5.8281555837
Mg              12.1380435845        6.1452986248        1.1552948275
Mg              10.5626513493        7.4393272081        3.4917451375
Mg              -0.7470370693       13.5845034087        5.8539651725
Mg              -0.4141233134       11.5731744294        1.1811044163
Mg               1.1613206747       12.8671880038        3.5175148625
O               11.4448542748        4.4594008898        0.1799383938
O               12.3693096627        7.6817921902        2.5163617151
O                9.1163701989        6.8711960537        4.8527763151
O                0.4679723520       14.5530324902        4.4928982849
O               -1.8604726812       12.1412349895        6.8293216062
O                1.3924452374       11.3306062094        2.1564836849
O               10.8166632178        5.4814306930        2.6544545543
O               11.7983003960        6.6267513638        4.9908623464
O               10.3155763238        6.9042119247        0.3180304005
O               -0.1602151724       13.5310035463        2.0183976536
O               -0.6612733797       12.1082204773        4.3548054457
O                0.8214347580       12.3856571134        6.6912295995
O               10.2339285937        4.0568166878        4.2820352737
O               13.3234014374        6.8344237415        6.6184570316
O                9.3731680279        8.1211435591        1.9456150927
O               -0.7429161383       14.9556159803        0.3908029684
O               -1.6036579866       10.8912504865        2.7272247263
O                2.3465326160       12.1779734056        5.0636449073
H               10.5690154501        1.7586983322        3.7757272622
H               15.1460844673        8.2736879495        6.1121481479
H                7.2154087907        8.9800589368        1.4393035474
H               -0.4078182864       17.2537378913        0.8971118521
H               -3.7614302918       10.0323850389        3.2335327378
H                4.1692547715       10.7387567798        5.5699564526
H                0.8058991659       18.9793791152        0.0620878386
H               -5.8627386368       10.2206694742        2.3985050510
H                5.0568491700        8.8248263379        4.7349272487
H               11.7827287267        0.0330541419        4.6107549490
H               16.0336748790       10.1876187081        6.9471721614
H                5.1140992077        8.7917730132        2.2743327513
H               11.8809554665        2.2067786271        6.0399820736
H               14.1020591147        9.1858254495        1.3671399842
H                6.9474868238        7.6198414222        3.7035613706
H                0.9041286367       16.8056541638        5.6421200158
H               -4.0293513817       11.3925985689        0.9692779264
H                3.1252328326        9.8266207929        3.3056986294
H                2.7231219140       15.5477140427        1.4785001743
H               -3.8494454277       13.5968733556        3.8149240192
H                1.1263180303        8.8802865768        6.1513414946
H               13.6999604519        3.4647191469        3.1943359808
H               12.1031543748       10.1321497764        5.5307598257
H                7.1273947533        5.4155633153        0.8579185054
H                3.6215954363       14.1510126548        5.8989200205
H               -3.0891134356       15.0733041845        1.2260940095
H               -0.5324540344        8.8004719243        3.5624619487
H               14.5984210606        4.8614013819        5.7831659905
H               10.4443387302       10.2118999776        1.1103399795
H                7.8876592690        3.9391172421        3.4467980513
H                6.0019395123       13.6422710737        5.6234284222
H               -3.8386965263       17.3891240354        0.9505984417
H               -2.1632350278        6.9933765563        3.2870051672
H               16.9787714273        5.3701533084        6.0586615583
H                8.8135835590       12.0189676265        1.3858315778
H                7.1380592699        1.6232717896        3.7222548328
H                5.4026961041       14.9016051241        4.5320832714
H               -4.6298043867       16.2405637337        6.8685503410
H               -0.7730112408        6.8826922017        2.1956096015
H               16.3796429585        4.1107536534        0.1407096590
H               10.2038205426       12.1296746372        2.4771767286
H                6.3470919135        2.7718987289        4.8136503985
H                5.0330008719       16.4282446897        1.3752072182
H               -5.7669509571       15.1570076349        3.7116753141
H                0.7339186734        6.4395896386        6.0481058426
H               16.0098291357        2.5841777862        3.2975846859
H               11.7107768050       12.5728289571        5.6340527818
H                5.2098888803        3.8553870348        0.9611541574
H                5.5910246594       15.1442435831        2.4529899332
H               -4.9340930833       16.2823129365        4.7894623558
H               -0.6570299173        6.5982051617        0.1165443582
H               16.5679431770        3.8681065134        2.2197976442
H               10.3197873343       12.4140911797        4.5562700668
H                6.0427282481        2.7300979814        6.8927156418
H                7.2657139554       14.3986820588        0.8069109586
H               -5.1257426814       18.1054348343        3.1434577994
H               -2.1400572087        5.5208354200        5.4797737984
H               18.2426378538        4.6136940418        3.8658022006
H                8.8367674663       13.4916338914        6.2023490414
H                5.8512123282        0.9070738017        1.5294862016
H                7.4983104112       16.1198702154        1.1027992303
H               -6.7319058908       17.4459371038        3.4399251587
H               -0.7658882407        4.4594462766        5.7763507898
H               18.4745776701        2.8929670346        3.5693348413
H               10.2110619067       14.5536624092        5.9064607697
H                4.2449378827        1.5664444653        1.2329092102
H                6.2520770562       16.6748089473        6.0200633910
H               -6.5898723956       16.0895153799        1.3469490935
H                0.3379449772        5.2608940770        3.6834834563
H               17.2288652513        2.3377607876        5.6623109065
H               11.3147696236       13.7518620308        0.9891966090
H                4.3870954288        2.9231159737        3.3257765437
H                7.5696726012       15.5584261939        5.6392527423
H               -6.2817821990       17.7884189267        0.9660062453
H               -1.2878047110        4.6782925791        3.3023724631
H               18.5461137833        3.4540264978        6.0432537547
H                9.6891560262       14.3347418679        1.3700072577
H                4.6954225754        1.2238746948        3.7068875369
H                2.3383112788       13.9793211713        0.7867834355
H               -2.2988114291       14.0478623713        3.1232037305
H               -0.0395502306        9.9977174811        5.4596222637
H               13.3152113969        5.0331020895        3.8860562695
H               10.9372916226        9.0146975549        6.2224765645
H                8.6780524337        4.9646072360        1.5496377363
H                4.8351254876       13.4139884017        0.8699900281
H               -3.0575905770       16.4928040604        3.2064079949
H               -1.7775541379        8.1181075550        5.5428129651
H               15.8119825844        5.5984509162        3.8028520051
H                9.1992919782       10.8943357036        6.1392699719
H                7.9192644423        2.5196467375        1.4664470349
H                3.6973040952       13.1539171551        2.8544454662
H               -2.2634040018       15.6374331502        5.1908784424
H               -1.4338738408        9.2335325028        0.5180251446
H               14.6741163590        5.8585512104        1.8183815576
H                9.5429743680        9.7789178495        4.1548145338
H                8.7134106346        3.3749950794        6.4912348554
H                3.2887300455       14.6038589123        3.4780228862
H               -3.3148442084       14.5586061415        5.8144629026
H                0.0261361156        8.8623954823        1.1415957857
H               14.2655448663        4.4085637767        1.1947970974
H               11.0029477887       10.1500532217        3.5312371138
H                7.6619915683        4.4538322812        5.8676642143
C               11.3173402337        3.2778099738        0.8017430488
C               13.4563378687        8.1621869646        3.1381612582
C                8.1568334516        7.5724302546        5.4745839810
C                0.3404923275       15.7346239185        3.8710987418
C               -2.8200034107       11.4400091326        6.2075169512
C                2.4795002432       10.8502401109        1.5346760190
C               10.9484086607        3.1269426116        2.1850015473
C               13.7714566736        7.9181230846        4.5214225960
C                8.2106457436        7.9673634738        6.8578385479
C               -0.0284325953       15.8854928687        2.4878374040
C               -2.7661925925       11.0450713370        4.8242584527
C                2.7946162977       11.0943095323        0.1514214521
C               10.8726988641        1.8304765116        2.7392939856
C               14.9320822996        8.5007898362        5.0757136667
C                7.1257239510        8.6811581153        0.4028776894
C               -0.1041411993       17.1819575210        1.9335463333
C               -3.8511102720       10.3312716799        4.2699660144
C                3.9552414866       10.5116370195        6.6063823106
C               11.1639213150        0.6708297079        2.0155479804
C               15.7907515449        9.3328219020        4.3519661356
C                5.9758310925        9.0087773855        6.6883877806
C                0.1870850837       18.3416029337        2.6572938644
C               -5.0010050888       10.0036543186        4.9937120196
C                4.8139145267        9.6796102275        0.3208722194
C               11.5173272234        0.8358359360        0.6533864957
C               15.4711499673        9.5563722430        2.9898033443
C                5.9420352604        8.6202262379        5.3262274147
C                0.5404861468       18.1765950189        4.0194566557
C               -5.0348084577       10.3922159272        6.3558735043
C                4.4943172782        9.4560666046        1.6830325853
C               11.5797596087        2.0919036321        0.0662957769
C               14.3521478142        8.9824087967        2.4027098772
C                6.9986026058        7.9381148132        4.7391368961
C                0.6029202981       16.9205290043        4.6065501228
C               -3.9782381167       11.0743178070        6.9429642231
C                3.3753077835       10.0300250541        2.2701231039
C               10.6505599994        4.2768308464        3.0907817215
C               12.9245503135        7.0852339491        5.4272018305
C                9.3553950089        7.6503656325        0.7543624799
C               -0.3262825651       14.7356058785        1.5820581695
C               -1.6214358390       11.3620709473        3.9184782785
C                1.9477134815       11.9271925564        6.2548975201
C                4.4477209962       14.4483704816        0.7479394506
C               -3.7596750139       15.6401018855        3.0843430433
C               -0.6880574798        7.9363977056        5.4207879954
C               15.4245630575        4.5640768707        3.9249169567
C               10.2887953822       11.0760246125        6.2613205494
C                7.2171507675        3.3723235960        1.5884720046
C                5.5904605607       14.6699752199        5.5834603088
C               -4.5229251078       16.5188972395        0.9106310419
C               -1.0674734026        6.8360243975        3.2469718891
C               16.5672472058        4.3424805769        6.0986289581
C                9.9093409331       12.1764684743        1.4257996912
C                6.4539074904        2.4935531142        3.7622881109
C                6.6174605975       15.6527718728        6.1703143191
C               -5.8874935945       16.9169367314        1.4973499158
C               -0.7298882096        5.4552982126        3.8339459481
C               17.5942437608        3.3597493482        5.5119100842
C               10.2469677828       13.5572749223        0.8389456809
C                5.0893709422        2.0955473749        3.1753140519
C                5.4546894782       15.4157176486        1.4012785258
C               -5.1008693250       16.0284165087        3.7377877973
C               -0.3537761860        6.5807430812        6.0741353477
C               16.4314505414        3.5967258375        3.2714722027
C               10.6230583622       12.4317584821        5.6079814742
C                5.8759787771        2.9839923762        0.9351246523
C                6.8103780828       15.3875793097        0.6687848977
C               -5.7540308087       17.2164487417        3.0050006098
C               -1.0560124708        5.4208741935        5.3416297272
C               17.7868973776        3.6250875163        4.0042593902
C                9.9208455435       13.5917500839        6.3404751023
C                5.2226209977        1.7959034703        1.6676302728
C                3.0589042269       14.5103910033        1.4077590455
C               -3.1190125654       14.4063544229        3.7442019707
C                0.0600752121        9.1081313599        6.0805911410
C               14.0357751889        4.5020330952        3.2650580293
C               11.0369151144        9.9042842699        5.6015009545
C                7.8578355326        4.6060923398        0.9286688590
N                4.3076118889       14.7792040362        6.3182207370
N               -3.9761360721       15.3533476530        1.6453888428
N               -0.3314887919        7.8922769664        3.9817849655
N               15.2844571366        4.2332389792        5.3638711572
N               10.6453601987       11.1201033435        0.6910392630
N                7.0006567426        3.6590607683        3.0274750345
N                3.0092974104       13.9089558957        2.7848659417
N               -2.5733629264       14.6641138076        5.1212757687
N               -0.4359820760        9.4518002413        0.4484258776
N               13.9861765446        5.1034592363        1.8879842313
N               10.5408604407        9.5606059528        4.2243940583
N                8.4034901586        4.3483285672        6.5608341224
C               10.7042954737       18.5403836196        3.5046300000
O               10.7041923783       18.5403730625        2.3323759391
O               10.7043378786       18.5402890579        4.6768840609



     Writing config-only to output data dir ./tmp/c_MOF_CO2_free.save/ :
     XML data file
     NEW-OLD atomic charge density approx. for the potential

     Check: negative core charge=   -0.000001

     negative rho (up, down):  2.602E-07 0.000E+00

     total cpu time spent up to now is     4309.4 secs

     per-process dynamical memory:   382.1 Mb

     Self-consistent Calculation

     iteration #  1     ecut=    60.00 Ry     beta= 0.30
     Davidson diagonalization with overlap
     ethr =  1.00E-06,  avg # of iterations =  3.0

     Threshold (ethr) on eigenvalues was too large:
     Diagonalizing with lowered threshold

     Davidson diagonalization with overlap
     ethr =  1.36E-08,  avg # of iterations =  5.0

     negative rho (up, down):  2.643E-07 0.000E+00

     total cpu time spent up to now is     4487.2 secs

     total energy              =   -2938.08659274 Ry
     estimated scf accuracy    <       0.00011196 Ry

     iteration #  2     ecut=    60.00 Ry     beta= 0.30
     Davidson diagonalization with overlap
     ethr =  1.84E-08,  avg # of iterations =  2.0

     negative rho (up, down):  2.717E-07 0.000E+00

     total cpu time spent up to now is     4550.0 secs

     total energy              =   -2938.08659520 Ry
     estimated scf accuracy    <       0.00004100 Ry

     iteration #  3     ecut=    60.00 Ry     beta= 0.30
     Davidson diagonalization with overlap
     ethr =  6.72E-09,  avg # of iterations =  4.0

     negative rho (up, down):  2.735E-07 0.000E+00

     total cpu time spent up to now is     4630.5 secs

     total energy              =   -2938.08660100 Ry
     estimated scf accuracy    <       0.00000522 Ry

     iteration #  4     ecut=    60.00 Ry     beta= 0.30
     Davidson diagonalization with overlap
     ethr =  8.55E-10,  avg # of iterations =  5.0

     negative rho (up, down):  2.743E-07 0.000E+00

     total cpu time spent up to now is     4712.3 secs

     total energy              =   -2938.08660214 Ry
     estimated scf accuracy    <       0.00000101 Ry

     iteration #  5     ecut=    60.00 Ry     beta= 0.30
     Davidson diagonalization with overlap
     ethr =  1.66E-10,  avg # of iterations =  5.5

     negative rho (up, down):  2.746E-07 0.000E+00

     total cpu time spent up to now is     4782.9 secs

     total energy              =   -2938.08660230 Ry
     estimated scf accuracy    <       0.00000021 Ry

     iteration #  6     ecut=    60.00 Ry     beta= 0.30
     Davidson diagonalization with overlap
     ethr =  3.52E-11,  avg # of iterations =  6.5

     negative rho (up, down):  2.745E-07 0.000E+00

     total cpu time spent up to now is     4879.7 secs

     total energy              =   -2938.08660231 Ry
     estimated scf accuracy    <       0.00000014 Ry

     iteration #  7     ecut=    60.00 Ry     beta= 0.30
     Davidson diagonalization with overlap
     ethr =  2.27E-11,  avg # of iterations =  8.0

     negative rho (up, down):  2.743E-07 0.000E+00

     total cpu time spent up to now is     4973.6 secs

     total energy              =   -2938.08660236 Ry
     estimated scf accuracy    <       0.00000009 Ry

     iteration #  8     ecut=    60.00 Ry     beta= 0.30
     Davidson diagonalization with overlap
     ethr =  1.54E-11,  avg # of iterations =  5.0

     negative rho (up, down):  2.738E-07 0.000E+00

     total cpu time spent up to now is     5050.9 secs

     End of self-consistent calculation

          k = 0.0000 0.0000 0.0000 (154911 PWs)   bands (ev):

   -25.0910 -24.1456 -22.3621 -22.3621 -22.2202 -22.2202 -22.2200 -22.2199
   -20.4252 -20.4249 -20.4101 -20.4098 -20.4095 -20.4093 -19.9410 -19.9406
   -19.9248 -19.9247 -19.9245 -19.9244 -18.6514 -18.6505 -18.6499 -18.6490
   -18.6468 -18.6457 -18.0714 -18.0702 -18.0698 -18.0687 -18.0668 -18.0654
   -17.0315 -17.0229 -17.0225 -16.3888 -16.3674 -16.3671 -15.3496 -15.3495
   -15.3400 -15.2868 -15.2867 -15.2775 -14.7241 -14.7182 -14.7147 -14.7146
   -14.7138 -14.7094 -14.6123 -14.5570 -14.5566 -14.4434 -14.4345 -14.4341
   -14.2039 -14.2036 -14.1935 -13.0480 -12.9734 -12.9731 -12.6756 -12.6735
   -12.6670 -12.6610 -12.6593 -12.6546 -11.6262 -11.6250 -11.6179 -11.5928
   -11.5917 -11.5862 -11.5653 -11.5616 -11.5498 -11.1894 -11.1891 -11.1583
   -10.7218 -10.7195 -10.7130 -10.7082 -10.6960 -10.6929 -10.6809 -10.5960
   -10.5957 -10.2813 -10.2810 -10.2389  -9.8361  -9.7391  -9.6862  -9.6824
    -9.6769  -9.6415  -9.6377  -9.6324  -9.4620  -9.4617  -9.3800  -8.8780
    -8.8778  -8.7251  -8.6968  -8.6898  -8.6803  -8.6786  -8.6643  -8.6627
    -8.6592  -8.6583  -8.5057  -8.5054  -8.4147  -8.3669  -8.3641  -8.3404
    -8.3029  -8.2910  -8.2882  -8.0076  -8.0074  -7.8138  -7.6881  -7.6820
    -7.6819  -7.6077  -7.6074  -7.5349  -7.4504  -7.4502  -7.4023  -7.3508
    -7.3470  -7.3459  -7.3199  -7.3195  -7.2311  -7.2222  -7.2218  -7.2170
    -7.1657  -7.1656  -7.0710  -7.0670  -7.0610  -7.0602  -6.9916  -6.9915
    -6.8988  -6.8972  -6.8947  -6.8348  -6.8329  -6.6947  -6.6390  -6.5857
    -6.5854  -6.5342  -6.5142  -6.5107  -6.5027  -6.4878  -6.4859  -6.4546
    -6.4523  -6.4333  -6.4109  -6.3070  -6.2810  -6.1825  -6.1815  -6.1672
    -6.1658  -6.0917  -6.0898  -6.0658  -6.0529  -6.0529  -6.0325  -5.9940
    -5.9936  -5.9549  -5.9253  -5.9221  -5.9010  -5.6433  -5.6299  -5.6229
    -5.6203  -5.6158  -5.6128  -5.5151  -5.5147  -5.4108  -5.3910  -5.3903
    -5.3901  -5.3192  -5.3190  -5.2894  -5.2567  -5.2335  -5.2312  -5.2116
    -5.2077  -5.2057  -5.1123  -5.1110  -5.0936  -5.0709  -5.0679  -5.0249
    -5.0218  -5.0178  -4.9055  -4.9051  -4.8912  -4.7511  -4.7508  -4.6453
    -4.4351  -4.4340  -4.3732  -4.3710  -4.3512  -4.3399  -4.2824  -4.2701
    -4.2686  -4.2038  -4.2032  -4.1624  -4.1336  -4.1299  -4.1231  -4.1131
    -4.0867  -4.0812  -3.9556  -3.9526  -3.9389  -3.9283  -3.8814  -3.8777
    -3.8296  -3.8266  -3.7730  -3.7696  -3.7248  -3.7214  -3.7209  -3.6097
    -3.5895  -3.5881  -3.3821  -3.3818  -3.3689  -3.3687  -3.3444  -3.0783
    -3.0783  -3.0250  -3.0058  -2.9846  -2.9845  -2.7701  -2.7690  -2.6951
    -2.6941  -2.5550  -2.5513  -2.4593  -2.4592  -2.4526  -2.4524  -2.3866
    -2.3794  -2.1315  -2.1312  -2.1193  -2.1190  -2.0939  -2.0843  -1.9124
    -1.9122  -1.8852  -1.8850  -1.7345  -1.7341  -1.5227  -1.5224  -1.4521
    -1.3004  -1.2978  -1.2951  -1.2592  -1.2584  -1.2552  -0.6198  -0.6195
    -0.5426

          k = 0.0000 0.0000-1.5660 (154844 PWs)   bands (ev):

   -25.0908 -24.1458 -22.3025 -22.3025 -22.3023 -22.3023 -22.1891 -22.1890
   -20.4575 -20.4572 -20.4572 -20.4569 -20.3960 -20.3955 -19.9192 -19.9190
   -19.9189 -19.9187 -19.8963 -19.8961 -18.6150 -18.6138 -18.6123 -18.6112
   -18.6098 -18.6086 -18.1229 -18.1216 -18.1194 -18.1181 -18.1172 -18.1160
   -17.0127 -17.0125 -17.0120 -16.3769 -16.3765 -16.3741 -15.3448 -15.3448
   -15.3352 -15.2821 -15.2820 -15.2727 -14.7143 -14.7140 -14.7108 -14.7108
   -14.7092 -14.7058 -14.5723 -14.5720 -14.5576 -14.4861 -14.4858 -14.4808
   -14.1959 -14.1955 -14.1888 -13.0115 -13.0112 -12.9821 -12.6836 -12.6787
   -12.6755 -12.6705 -12.6651 -12.6620 -11.6071 -11.6067 -11.5627 -11.5492
   -11.5476 -11.5404 -11.4943 -11.4906 -11.4841 -11.1452 -11.1449 -11.0844
   -10.7531 -10.7516 -10.7468 -10.7276 -10.7254 -10.7208 -10.6074 -10.6072
   -10.5384 -10.2849 -10.2846 -10.2510  -9.8206  -9.6993  -9.6964  -9.6866
    -9.6590  -9.6583  -9.6460  -9.6454  -9.6407  -9.4872  -9.2013  -9.2011
    -8.8261  -8.7686  -8.7675  -8.7654  -8.7643  -8.7460  -8.7306  -8.7250
    -8.6588  -8.6582  -8.4401  -8.3432  -8.3430  -8.1413  -8.1385  -8.1253
    -8.0609  -8.0588  -8.0524  -7.9488  -7.8974  -7.8972  -7.8374  -7.8371
    -7.7732  -7.5904  -7.5057  -7.5053  -7.4462  -7.4456  -7.4446  -7.4094
    -7.3930  -7.3911  -7.3201  -7.3102  -7.2714  -7.2713  -7.2563  -7.1919
    -7.1895  -7.1719  -7.1511  -7.1479  -7.1100  -7.1078  -6.9379  -6.9076
    -6.8561  -6.8558  -6.7606  -6.7585  -6.7229  -6.6370  -6.6349  -6.6272
    -6.5736  -6.5731  -6.5478  -6.5028  -6.4761  -6.4757  -6.4470  -6.4446
    -6.3965  -6.3958  -6.3834  -6.3605  -6.3092  -6.3081  -6.2787  -6.2786
    -6.2590  -6.2587  -6.2298  -6.1828  -6.1761  -6.1756  -6.1083  -6.0954
    -6.0918  -6.0905  -6.0880  -6.0748  -6.0329  -6.0127  -5.9764  -5.9722
    -5.8594  -5.8254  -5.8203  -5.5495  -5.5492  -5.5302  -5.4838  -5.4052
    -5.4046  -5.3740  -5.3727  -5.3116  -5.2905  -5.2894  -5.2854  -5.2377
    -5.2007  -5.1999  -5.1161  -5.1151  -5.0621  -5.0604  -5.0563  -5.0128
    -5.0111  -5.0063  -4.7236  -4.7233  -4.7164  -4.6748  -4.6746  -4.5931
    -4.5050  -4.4101  -4.3847  -4.3839  -4.3628  -4.3624  -4.2608  -4.2607
    -4.2588  -4.1272  -4.1243  -4.1156  -4.0969  -4.0937  -4.0734  -4.0604
    -4.0581  -4.0570  -3.9619  -3.9282  -3.9242  -3.8901  -3.8873  -3.8130
    -3.8063  -3.6761  -3.5929  -3.5605  -3.5600  -3.4152  -3.4135  -3.4056
    -3.3974  -3.3952  -3.3862  -3.3557  -3.3550  -3.2789  -3.2787  -3.0117
    -2.9285  -2.9186  -2.9186  -2.8943  -2.8943  -2.8075  -2.7606  -2.7604
    -2.7228  -2.7225  -2.7085  -2.4366  -2.4322  -2.3955  -2.3954  -2.3883
    -2.3882  -2.1973  -2.1620  -2.1617  -2.1208  -2.0754  -2.0751  -1.9274
    -1.9272  -1.9126  -1.9125  -1.9074  -1.8736  -1.5078  -1.5075  -1.4493
    -1.2945  -1.2925  -1.2843  -1.2600  -1.2583  -1.2531  -0.5986  -0.5804
    -0.5801

     highest occupied level (ev):    -0.5426

!    total energy              =   -2938.08660240 Ry
     estimated scf accuracy    <          2.3E-09 Ry

     The total energy is the sum of the following terms:
     one-electron contribution =   -5752.86932578 Ry
     hartree contribution      =    3071.83172759 Ry
     xc contribution           =    -693.82716223 Ry
     ewald contribution        =    1356.67267495 Ry
     one-center paw contrib.   =    -919.89451694 Ry

     convergence has been achieved in   8 iterations

     negative rho (up, down):  2.738E-07 0.000E+00

     Forces acting on atoms (cartesian axes, Ry/au):

     atom    1 type  1   force =     0.00000628    0.00001535   -0.00002285
     atom    2 type  1   force =    -0.00001968   -0.00000704   -0.00002045
     atom    3 type  1   force =     0.00001779   -0.00001526   -0.00001929
     atom    4 type  1   force =     0.00000374   -0.00002057    0.00002045
     atom    5 type  1   force =     0.00001015    0.00001311    0.00002285
     atom    6 type  1   force =    -0.00002211    0.00000777    0.00001929
     atom    7 type  2   force =     0.00072756    0.00005385    0.00003287
     atom    8 type  2   force =    -0.00041130    0.00060156    0.00003469
     atom    9 type  2   force =    -0.00031739   -0.00065575    0.00003239
     atom   10 type  2   force =     0.00072662   -0.00005542   -0.00003469
     atom   11 type  2   force =    -0.00031714    0.00065701   -0.00003287
     atom   12 type  2   force =    -0.00040920   -0.00060275   -0.00003239
     atom   13 type  2   force =    -0.00029338    0.00030033   -0.00006441
     atom   14 type  2   force =    -0.00011164   -0.00040386   -0.00006734
     atom   15 type  2   force =     0.00040152    0.00010806   -0.00006701
     atom   16 type  2   force =    -0.00029393   -0.00029861    0.00006734
     atom   17 type  2   force =     0.00040678   -0.00010391    0.00006441
     atom   18 type  2   force =    -0.00010718    0.00040176    0.00006701
     atom   19 type  2   force =    -0.00019835   -0.00008918   -0.00072932
     atom   20 type  2   force =     0.00017645   -0.00012558   -0.00073039
     atom   21 type  2   force =     0.00001627    0.00021457   -0.00072263
     atom   22 type  2   force =    -0.00019698    0.00009002    0.00073039
     atom   23 type  2   force =     0.00002194   -0.00021637    0.00072932
     atom   24 type  2   force =     0.00017769    0.00012137    0.00072263
     atom   25 type  3   force =     0.00052627   -0.00007292    0.00035523
     atom   26 type  3   force =    -0.00019988    0.00049229    0.00035561
     atom   27 type  3   force =    -0.00032532   -0.00041793    0.00035742
     atom   28 type  3   force =     0.00052628    0.00007304   -0.00035561
     atom   29 type  3   force =    -0.00032628    0.00041930   -0.00035523
     atom   30 type  3   force =    -0.00019927   -0.00049070   -0.00035742
     atom   31 type  3   force =    -0.00001539   -0.00010773   -0.00010786
     atom   32 type  3   force =     0.00010049    0.00003884   -0.00010819
     atom   33 type  3   force =    -0.00008370    0.00006931   -0.00010862
     atom   34 type  3   force =    -0.00001661    0.00010645    0.00010819
     atom   35 type  3   force =    -0.00008561   -0.00006719    0.00010786
     atom   36 type  3   force =     0.00010188   -0.00003783    0.00010862
     atom   37 type  3   force =    -0.00057221    0.00036449   -0.00007506
     atom   38 type  3   force =    -0.00003064   -0.00067773   -0.00007458
     atom   39 type  3   force =     0.00060284    0.00031357   -0.00007583
     atom   40 type  3   force =    -0.00057161   -0.00036540    0.00007458
     atom   41 type  3   force =     0.00060177   -0.00031330    0.00007506
     atom   42 type  3   force =    -0.00002986    0.00067885    0.00007583
     atom   43 type  3   force =    -0.00016355    0.00008225    0.00007350
     atom   44 type  3   force =     0.00000897   -0.00017853    0.00007316
     atom   45 type  3   force =     0.00015001    0.00009779    0.00007086
     atom   46 type  3   force =    -0.00015910   -0.00008149   -0.00007316
     atom   47 type  3   force =     0.00015300   -0.00010051   -0.00007350
     atom   48 type  3   force =     0.00000968    0.00017881   -0.00007086
     atom   49 type  3   force =    -0.00000310   -0.00028975   -0.00006203
     atom   50 type  3   force =     0.00026329    0.00012912   -0.00006008
     atom   51 type  3   force =    -0.00023937    0.00016524   -0.00007097
     atom   52 type  3   force =    -0.00001982    0.00029257    0.00006008
     atom   53 type  3   force =    -0.00024938   -0.00014756    0.00006203
     atom   54 type  3   force =     0.00026278   -0.00012468    0.00007097
     atom   55 type  3   force =     0.00011804   -0.00028535    0.00115999
     atom   56 type  3   force =     0.00020477    0.00024761    0.00115701
     atom   57 type  3   force =    -0.00031400    0.00004252    0.00115347
     atom   58 type  3   force =     0.00011205    0.00030114   -0.00115701
     atom   59 type  3   force =    -0.00030614   -0.00004045   -0.00115999
     atom   60 type  3   force =     0.00019382   -0.00025067   -0.00115347
     atom   61 type  3   force =    -0.00026817    0.00019268    0.00067227
     atom   62 type  3   force =    -0.00003437   -0.00033250    0.00065980
     atom   63 type  3   force =     0.00029807    0.00013179    0.00068397
     atom   64 type  3   force =    -0.00027077   -0.00019602   -0.00065980
     atom   65 type  3   force =     0.00030095   -0.00013590   -0.00067227
     atom   66 type  3   force =    -0.00003491    0.00032403   -0.00068397
     atom   67 type  3   force =     0.00005077    0.00028958   -0.00090119
     atom   68 type  3   force =    -0.00026015   -0.00009359   -0.00089984
     atom   69 type  3   force =     0.00021796   -0.00018449   -0.00089976
     atom   70 type  3   force =     0.00004903   -0.00027209    0.00089984
     atom   71 type  3   force =     0.00022540    0.00018876    0.00090119
     atom   72 type  3   force =    -0.00026875    0.00009651    0.00089976
     atom   73 type  3   force =     0.00089350    0.00029592   -0.00067548
     atom   74 type  3   force =    -0.00071141    0.00062361   -0.00069590
     atom   75 type  3   force =    -0.00019463   -0.00092677   -0.00067500
     atom   76 type  3   force =     0.00089577   -0.00030430    0.00069590
     atom   77 type  3   force =    -0.00019048    0.00092176    0.00067548
     atom   78 type  3   force =    -0.00070529   -0.00063194    0.00067500
     atom   79 type  3   force =     0.00041261    0.00030307   -0.00004869
     atom   80 type  3   force =    -0.00043433    0.00020049   -0.00004970
     atom   81 type  3   force =     0.00003015   -0.00046189   -0.00005125
     atom   82 type  3   force =     0.00039079   -0.00027590    0.00004970
     atom   83 type  3   force =     0.00005616    0.00050887    0.00004869
     atom   84 type  3   force =    -0.00041508   -0.00020483    0.00005125
     atom   85 type  3   force =     0.00028696    0.00033646    0.00042528
     atom   86 type  3   force =    -0.00042732    0.00004158    0.00053426
     atom   87 type  3   force =     0.00014425   -0.00035482    0.00052456
     atom   88 type  3   force =     0.00024967   -0.00034928   -0.00053426
     atom   89 type  3   force =     0.00014790    0.00041675   -0.00042528
     atom   90 type  3   force =    -0.00037941   -0.00005249   -0.00052456
     atom   91 type  3   force =     0.00037103    0.00019714    0.00000310
     atom   92 type  3   force =    -0.00033724    0.00019146   -0.00003394
     atom   93 type  3   force =    -0.00000591   -0.00037903   -0.00001904
     atom   94 type  3   force =     0.00033443   -0.00019633    0.00003394
     atom   95 type  3   force =    -0.00001479    0.00041989   -0.00000310
     atom   96 type  3   force =    -0.00032530   -0.00019464    0.00001904
     atom   97 type  3   force =    -0.00010931   -0.00013504   -0.00058378
     atom   98 type  3   force =     0.00021193   -0.00005592   -0.00063986
     atom   99 type  3   force =    -0.00008156    0.00022943   -0.00064405
     atom  100 type  3   force =    -0.00015440    0.00015557    0.00063986
     atom  101 type  3   force =    -0.00006230   -0.00016218    0.00058378
     atom  102 type  3   force =     0.00023947    0.00004408    0.00064405
     atom  103 type  3   force =    -0.00025328    0.00017534   -0.00004250
     atom  104 type  3   force =    -0.00001768   -0.00030777   -0.00004729
     atom  105 type  3   force =     0.00027748    0.00013636   -0.00004763
     atom  106 type  3   force =    -0.00025770   -0.00016920    0.00004729
     atom  107 type  3   force =     0.00027849   -0.00013168    0.00004250
     atom  108 type  3   force =    -0.00002065    0.00030849    0.00004763
     atom  109 type  3   force =    -0.00009103   -0.00017324    0.00045124
     atom  110 type  3   force =     0.00019458    0.00000453    0.00045406
     atom  111 type  3   force =    -0.00010325    0.00016830    0.00044803
     atom  112 type  3   force =    -0.00009336    0.00017078   -0.00045406
     atom  113 type  3   force =    -0.00010452   -0.00016546   -0.00045124
     atom  114 type  3   force =     0.00019737   -0.00000527   -0.00044803
     atom  115 type  3   force =     0.00007589   -0.00007442   -0.00027540
     atom  116 type  3   force =     0.00002913    0.00010127   -0.00027064
     atom  117 type  3   force =    -0.00010123   -0.00002718   -0.00027419
     atom  118 type  3   force =     0.00007314    0.00007586    0.00027064
     atom  119 type  3   force =    -0.00010240    0.00002851    0.00027540
     atom  120 type  3   force =     0.00002708   -0.00010126    0.00027419
     atom  121 type  3   force =    -0.00004747   -0.00008146   -0.00011263
     atom  122 type  3   force =     0.00009688    0.00000074   -0.00011155
     atom  123 type  3   force =    -0.00004702    0.00008322   -0.00011589
     atom  124 type  3   force =    -0.00004780    0.00008427    0.00011155
     atom  125 type  3   force =    -0.00004681   -0.00008184    0.00011263
     atom  126 type  3   force =     0.00009558    0.00000089    0.00011589
     atom  127 type  4   force =     0.00010014    0.00009205   -0.00040316
     atom  128 type  4   force =    -0.00012617    0.00003859   -0.00040324
     atom  129 type  4   force =     0.00002845   -0.00013238   -0.00040305
     atom  130 type  4   force =     0.00009651   -0.00008997    0.00040324
     atom  131 type  4   force =     0.00002965    0.00013275    0.00040316
     atom  132 type  4   force =    -0.00012887   -0.00004155    0.00040305
     atom  133 type  4   force =     0.00028061    0.00020186    0.00000095
     atom  134 type  4   force =    -0.00031400    0.00013951    0.00000011
     atom  135 type  4   force =     0.00003056   -0.00034103    0.00000485
     atom  136 type  4   force =     0.00027782   -0.00020218   -0.00000011
     atom  137 type  4   force =     0.00003451    0.00034394   -0.00000095
     atom  138 type  4   force =    -0.00031062   -0.00014405   -0.00000485
     atom  139 type  4   force =    -0.00044970   -0.00008350    0.00031085
     atom  140 type  4   force =     0.00029893   -0.00034633    0.00031090
     atom  141 type  4   force =     0.00015365    0.00042980    0.00030481
     atom  142 type  4   force =    -0.00044939    0.00008571   -0.00031090
     atom  143 type  4   force =     0.00015254   -0.00043120   -0.00031085
     atom  144 type  4   force =     0.00029539    0.00034796   -0.00030481
     atom  145 type  4   force =     0.00045732   -0.00060833    0.00015723
     atom  146 type  4   force =     0.00029751    0.00069831    0.00015714
     atom  147 type  4   force =    -0.00075349   -0.00009204    0.00016026
     atom  148 type  4   force =     0.00045600    0.00060681   -0.00015714
     atom  149 type  4   force =    -0.00075549    0.00009188   -0.00015723
     atom  150 type  4   force =     0.00029704   -0.00069856   -0.00016026
     atom  151 type  4   force =    -0.00015393    0.00056072   -0.00015966
     atom  152 type  4   force =    -0.00040730   -0.00041353   -0.00016020
     atom  153 type  4   force =     0.00056389   -0.00014783   -0.00016086
     atom  154 type  4   force =    -0.00015447   -0.00055950    0.00016020
     atom  155 type  4   force =     0.00056256    0.00014705    0.00015966
     atom  156 type  4   force =    -0.00040996    0.00041443    0.00016086
     atom  157 type  4   force =    -0.00029174   -0.00056337    0.00061402
     atom  158 type  4   force =     0.00063196    0.00002664    0.00061380
     atom  159 type  4   force =    -0.00034334    0.00053686    0.00061471
     atom  160 type  4   force =    -0.00029291    0.00056061   -0.00061380
     atom  161 type  4   force =    -0.00034202   -0.00053434   -0.00061402
     atom  162 type  4   force =     0.00063661   -0.00002891   -0.00061471
     atom  163 type  4   force =    -0.00042801   -0.00013076    0.00061383
     atom  164 type  4   force =     0.00032901   -0.00030910    0.00061175
     atom  165 type  4   force =     0.00010192    0.00042720    0.00060511
     atom  166 type  4   force =    -0.00043219    0.00013038   -0.00061175
     atom  167 type  4   force =     0.00010077   -0.00043605   -0.00061383
     atom  168 type  4   force =     0.00031901    0.00030186   -0.00060511
     atom  169 type  4   force =    -0.00000822   -0.00006411   -0.00024328
     atom  170 type  4   force =     0.00008211    0.00001838   -0.00024983
     atom  171 type  4   force =    -0.00005023    0.00006724   -0.00024554
     atom  172 type  4   force =    -0.00002514    0.00008030    0.00024983
     atom  173 type  4   force =    -0.00005141   -0.00003918    0.00024328
     atom  174 type  4   force =     0.00008335   -0.00000988    0.00024554
     atom  175 type  4   force =    -0.00002670   -0.00044112   -0.00056151
     atom  176 type  4   force =     0.00041231    0.00018543   -0.00055723
     atom  177 type  4   force =    -0.00036525    0.00027215   -0.00057147
     atom  178 type  4   force =    -0.00004557    0.00044979    0.00055723
     atom  179 type  4   force =    -0.00036867   -0.00024369    0.00056151
     atom  180 type  4   force =     0.00041831   -0.00018024    0.00057147
     atom  181 type  4   force =     0.00026064    0.00001322    0.00006052
     atom  182 type  4   force =    -0.00015338    0.00024254    0.00006277
     atom  183 type  4   force =    -0.00012907   -0.00020763    0.00005674
     atom  184 type  4   force =     0.00028674   -0.00001156   -0.00006277
     atom  185 type  4   force =    -0.00011887    0.00023233   -0.00006052
     atom  186 type  4   force =    -0.00011528   -0.00021559   -0.00005674
     atom  187 type  4   force =     0.00013219    0.00040335    0.00044125
     atom  188 type  4   force =    -0.00039661   -0.00009717    0.00046100
     atom  189 type  4   force =     0.00027946   -0.00028281    0.00044799
     atom  190 type  4   force =     0.00011415   -0.00039206   -0.00046100
     atom  191 type  4   force =     0.00028322    0.00031616   -0.00044125
     atom  192 type  4   force =    -0.00038466    0.00010061   -0.00044799
     atom  193 type  4   force =     0.00030092    0.00040627   -0.00024778
     atom  194 type  4   force =    -0.00044309    0.00004914   -0.00024120
     atom  195 type  4   force =     0.00019315   -0.00045521   -0.00024065
     atom  196 type  4   force =     0.00026410   -0.00035916    0.00024120
     atom  197 type  4   force =     0.00020138    0.00046374    0.00024778
     atom  198 type  4   force =    -0.00049080   -0.00006033    0.00024065
     atom  199 type  4   force =    -0.00014195    0.00011398    0.00010132
     atom  200 type  4   force =    -0.00001835   -0.00019041    0.00011333
     atom  201 type  4   force =     0.00017189    0.00007879    0.00010311
     atom  202 type  4   force =    -0.00015572   -0.00011110   -0.00011333
     atom  203 type  4   force =     0.00016968   -0.00006594   -0.00010132
     atom  204 type  4   force =    -0.00001771    0.00018825   -0.00010311
     atom  205 type  5   force =    -0.00007272   -0.00006068    0.00031128
     atom  206 type  5   force =     0.00009901   -0.00004758    0.00031689
     atom  207 type  5   force =    -0.00000848    0.00011145    0.00031335
     atom  208 type  5   force =    -0.00009071    0.00006196   -0.00031689
     atom  209 type  5   force =    -0.00001620   -0.00009332   -0.00031128
     atom  210 type  5   force =     0.00010076    0.00004838   -0.00031335
     atom  211 type  5   force =    -0.00019210   -0.00023656    0.00000571
     atom  212 type  5   force =     0.00030633   -0.00005579    0.00001310
     atom  213 type  5   force =    -0.00010746    0.00028873    0.00000614
     atom  214 type  5   force =    -0.00020149    0.00023739   -0.00001310
     atom  215 type  5   force =    -0.00010882   -0.00028464   -0.00000571
     atom  216 type  5   force =     0.00030378    0.00005130   -0.00000614
     atom  217 type  4   force =    -0.00010308   -0.00017854    0.00000000
     atom  218 type  2   force =    -0.00011682   -0.00015932   -0.00439303
     atom  219 type  2   force =    -0.00007956   -0.00018083    0.00439303

     Total force =     0.010736     Total SCF correction =     0.000091
     Energy error            =      2.9E-04 Ry
     Gradient error          =      4.4E-03 Ry/Bohr

     number of scf cycles    =   6
     number of bfgs steps    =   5

     energy             old  =   -2938.0863169497 Ry
     energy             new  =   -2938.0866024024 Ry

     CASE: energy            _new < energy            _old

     new trust radius        =       0.0070372459 bohr
     new conv_thr            =       0.0000000029 Ry


ATOMIC_POSITIONS (angstrom)
Mg              10.2292143835        5.4275159241        5.8275589182
Mg              12.1386613928        6.1450827513        1.1546962558
Mg              10.5625288423        7.4399974925        3.4911548899
Mg              -0.7475329254       13.5849305096        5.8545637442
Mg              -0.4142405220       11.5725174788        1.1817010818
Mg               1.1619624115       12.8674170518        3.5181051101
O               11.4474448402        4.4590110831        0.1789978316
O               12.3683558244        7.6842190215        2.5154240422
O                9.1147366996        6.8691490811        4.8518358667
O                0.4705509687       14.5534198577        4.4938359578
O               -1.8621055464       12.1432835816        6.8302621684
O                1.3914892568       11.3281680712        2.1574241333
O               10.8160228054        5.4811113681        2.6538995482
O               11.7989035141        6.6263479996        4.9903011762
O               10.3156171849        6.9049300058        0.3174709747
O               -0.1608660550       13.5313241798        2.0189588238
O               -0.6612297170       12.1075062014        4.3553604518
O                0.8220362040       12.3860515407        6.6917890253
O               10.2331315558        4.0566392239        4.2820390182
O               13.3239539831        6.8338220295        6.6184598920
O                9.3734040152        8.1219099835        1.9456242878
O               -0.7437135090       14.9557936429        0.3908001080
O               -1.6034131560       10.8904714995        2.7272209818
O                2.3470783654       12.1785609888        5.0636357122
H               10.5702092369        1.7586345646        3.7757313233
H               15.1455428694        8.2747540546        6.1121528773
H                7.2147586590        8.9790601996        1.4393082572
H               -0.4066242133       17.2538019063        0.8971071227
H               -3.7620824096       10.0333870048        3.2335286767
H                4.1687149055       10.7376943807        5.5699517428
H                0.8059598176       18.9793626925        0.0620400596
H               -5.8627551532       10.2207268428        2.3984562672
H                5.0568092189        8.8247865641        4.7348786509
H               11.7827866676        0.0330685226        4.6108037328
H               16.0336303306       10.1876630227        6.9472199404
H                5.1140847380        8.7917185277        2.2743813491
H               11.8791595765        2.2075674289        6.0409699057
H               14.1022710631        9.1838772109        1.3681276402
H                6.9490698313        7.6210036814        3.7045485845
H                0.9023354383       16.8048635972        5.6411323598
H               -4.0277703142       11.3914376834        0.9682900943
H                3.1254478748        9.8285728472        3.3047114155
H                2.7228708625       15.5476958575        1.4784998630
H               -3.8493076207       13.5966703290        3.8149246230
H                1.1264247569        8.8805098181        6.1513388403
H               13.6997157222        3.4647369779        3.1943353770
H               12.1032641516       10.1319232669        5.5307601370
H                7.1275347227        5.4157673639        0.8579211597
H                3.6209356515       14.1503495364        5.8985170320
H               -3.0882046943       15.0730469196        1.2256976941
H               -0.5326762673        8.8013757734        3.5620417494
H               14.5977438920        4.8620597425        5.7835623059
H               10.4440943452       10.2109970279        1.1107429680
H                7.8885531417        3.9393767073        3.4472182506
H                6.0019297410       13.6416426541        5.6250593509
H               -3.8381318425       17.3894300871        0.9522287845
H               -2.1637797563        6.9936792862        3.2886261531
H               16.9787541340        5.3707953648        6.0570312155
H                8.8130442173       12.0186449545        1.3842006491
H                7.1385938059        1.6229514059        3.7206338469
H                5.4021336556       14.9018752542        4.5353058535
H               -4.6297891635       16.2399501911        6.8717671615
H               -0.7724952716        6.8830215578        2.1988222591
H               16.3791040034        4.1104600658        0.1374928385
H               10.2043357064       12.1293226075        2.4739541465
H                6.3471191596        2.7725102494        4.8104377409
H                5.0330014114       16.4290503005        1.3739058443
H               -5.7676383548       15.1566067738        3.7103890413
H                0.7346061109        6.4391857723        6.0468209209
H               16.0098256786        2.5833820518        3.2988709587
H               11.7114742146       12.5732322297        5.6353541557
H                5.2091954030        3.8557804400        0.9624390791
H                5.5934787543       15.1450494635        2.4503452653
H               -4.9360563699       16.2840458284        4.7868210509
H               -0.6575612038        6.5956357519        0.1139016943
H               16.5704255487        3.8672727032        2.2224389491
H               10.3192581999       12.4166194284        4.5589147347
H                6.0407687172        2.7283531689        6.8953583057
H                7.2663629863       14.3994860234        0.8066156695
H               -5.1267404399       18.1056045790        3.1431897434
H               -2.1397139540        5.5199308212        5.4794821593
H               18.2432837362        4.6129148300        3.8660702566
H                8.8371392046       13.4925979509        6.2026443305
H                5.8502572952        0.9069187696        1.5297778407
H                7.4990911740       16.1205898031        1.1037823443
H               -6.7327210814       17.4461319604        3.4411816008
H               -0.7656820033        4.4586253417        5.7776240055
H               18.4751540162        2.8923584871        3.5680783992
H               10.2112947065       14.5546983635        5.9054776557
H                4.2441238136        1.5662126047        1.2316359945
H                6.2529889184       16.6749515136        6.0202611368
H               -6.5903966403       16.0902088669        1.3470387096
H                0.3376165938        5.2601573477        3.6836202737
H               17.2297279510        2.3376535219        5.6622212904
H               11.3144371586       13.7527230097        0.9889988632
H                4.3866215942        2.9224632208        3.3256397263
H                7.5698866685       15.5584009822        5.6379227817
H               -6.2817808683       17.7885272449        0.9645021837
H               -1.2879860912        4.6783396756        3.3008652707
H               18.5462069243        3.4540818094        6.0447578163
H                9.6890271586       14.3349146497        1.3713372183
H                4.6955540523        1.2237411632        3.7083947293
H                2.3375544704       13.9797472492        0.7865874931
H               -2.2988062438       14.0470059266        3.1230045432
H               -0.0388057845        9.9981584274        5.4594209742
H               13.3144671014        5.0326783577        3.8862554568
H               10.9380390211        9.0142551786        6.2226725069
H                8.6780620814        4.9654724184        1.5498390258
H                4.8348769350       13.4138780256        0.8705202089
H               -3.0573745044       16.4926475570        3.2069398733
H               -1.7775281918        8.1183818716        5.5433359503
H               15.8117390122        5.5985597888        3.8023201267
H                9.1993206660       10.8940652627        6.1387397911
H                7.9194890343        2.5198063658        1.4659240497
H                3.6973805283       13.1538041039        2.8539078723
H               -2.2633317837       15.6375532751        5.1903492906
H               -1.4340124082        9.2335277428        0.5174888400
H               14.6741842812        5.8586738156        1.8189107094
H                9.5428382463        9.7789275169        4.1553521277
H                8.7134757960        3.3748726965        6.4917711600
H                3.2886065900       14.6036328773        3.4776372976
H               -3.3145855169       14.5586075845        5.8140848679
H                0.0260079116        8.8626195130        1.1412057138
H               14.2654167703        4.4087885315        1.1951751321
H               11.0028137643       10.1498332886        3.5316227024
H                7.6622496866        4.4538332687        5.8680542862
C               11.3176454811        3.2779779803        0.8020351797
C               13.4560452652        8.1623615619        3.1384529824
C                8.1568262337        7.5720824683        5.4748758427
C                0.3407898349       15.7344578151        3.8708070176
C               -2.8200105365       11.4403574878        6.2072248203
C                2.4792026604       10.8500599668        1.5343841573
C               10.9479476125        3.1270521575        2.1851736173
C               13.7715939859        7.9176653863        4.5215943714
C                8.2109696611        7.9677095457        6.8580127330
C               -0.0288976298       15.8853829355        2.4876656286
C               -2.7658671989       11.0447268304        4.8240863827
C                2.7947540459       11.0947630890        0.1512472670
C               10.8731121630        1.8304861124        2.7394158591
C               14.9318687911        8.5011428278        5.0758356628
C                7.1255264223        8.6807932444        0.4029962050
C               -0.1037287454       17.1819491130        1.9334243372
C               -3.8513086068       10.3316344076        4.2698441409
C                3.9550242635       10.5112835192        6.6062637950
C               11.1643454534        0.6704275622        2.0156585541
C               15.7908869319        9.3333878689        4.3520757907
C                5.9752724916        9.0086100887        6.6885009068
C                0.1875075319       18.3420031657        2.6571842093
C               -5.0015654264       10.0038205604        4.9936014459
C                4.8140489439        9.6790428166        0.3207590932
C               11.5170504555        0.8360642607        0.6535282626
C               15.4710912554        9.5560164427        2.9899436703
C                5.9423746421        8.6203523711        5.3263679639
C                0.5402073706       18.1763662728        4.0193163297
C               -5.0344723388       10.3920904015        6.3557317374
C                4.4942568220        9.4564235843        1.6828920361
C               11.5791709872        2.0915080115        0.0677368411
C               14.3527830606        8.9820933123        2.4041496796
C                6.9985548344        7.9388240911        4.7405785177
C                0.6023294573       16.9209214015        4.6051103204
C               -3.9782864234       11.0736102355        6.9415231589
C                3.3759459219       10.0303383218        2.2686814823
C               10.6495613480        4.2762754224        3.0913566221
C               12.9255347831        7.0846401843        5.4277743291
C                9.3554131826        7.6514994483        0.7549302299
C               -0.3272890153       14.7361615718        1.5814856709
C               -1.6214175246       11.3609283778        3.9179033779
C                1.9486863080       11.9277752032        6.2543297701
C                4.4472573095       14.4482092416        0.7479568188
C               -3.7592789849       15.6397657777        3.0843711096
C               -0.6879643338        7.9369086653        5.4208055099
C               15.4240739652        4.5642517880        3.9248888904
C               10.2888875876       11.0755424280        6.2613031812
C                7.2175466986        3.3726597427        1.5884544901
C                5.5904557232       14.6694398239        5.5855255893
C               -4.5224275904       16.5191447302        0.9126973273
C               -1.0679298642        6.8363365167        3.2490314769
C               16.5672127804        4.3430351850        6.0965626727
C                9.9088796852       12.1761965869        1.4237344107
C                6.4544060243        2.4933138664        3.7602285231
C                6.6183724855       15.6529046151        6.1704883579
C               -5.8880352921       16.9176472788        1.4975029609
C               -0.7302323384        5.4545040644        3.8341077499
C               17.5951299618        3.3596354980        5.5117570391
C               10.2466267969       13.5581310116        0.8387716421
C                5.0888552541        2.0948522765        3.1751522501
C                5.4549850699       15.4165254654        1.3995743779
C               -5.1016642167       16.0282408448        3.7360885039
C               -0.3532322888        6.5801387490        6.0724312591
C               16.4316958579        3.5959496092        3.2731714961
C               10.6236101562       12.4324183805        5.6096856221
C                5.8751834614        2.9841612389        0.9368287409
C                6.8114467834       15.3885670978        0.6683560561
C               -5.7553305954       17.2168488485        3.0045771585
C               -1.0557120028        5.4195311009        5.3412129414
C               17.7878937736        3.6241619215        4.0046828415
C                9.9211666428       13.5931694998        6.3409039439
C                5.2213076114        1.7954921370        1.6680470586
C                3.0584795221       14.5103627717        1.4078363915
C               -3.1187711481       14.4059980312        3.7442886928
C                0.0602621255        9.1085206720        6.0806655893
C               14.0353458361        4.5020639728        3.2649713072
C               11.0371030174        9.9039023489        5.6014236085
C                7.8580792301        4.6064488676        0.9285944107
N                4.3070457664       14.7781340045        6.3188620408
N               -3.9749162716       15.3533788980        1.6460358688
N               -0.3321266938        7.8933129287        3.9824217946
N               15.2838742953        4.2343109798        5.3632241312
N               10.6447165853       11.1190780512        0.6903979592
N                7.0018728633        3.6590263102        3.0268382054
N                3.0090130842       13.9085789527        2.7846678703
N               -2.5728968246       14.6640553111        5.1210835751
N               -0.4361664326        9.4522331222        0.4482233323
N               13.9858928342        5.1038336441        1.8881764249
N               10.5406761615        9.5601712476        4.2245921297
N                8.4039572227        4.3483853501        6.5610366677
C               10.7040882596       18.5400247143        3.5046300000
O               10.7039446132       18.5400324980        2.3313227367
O               10.7041668236       18.5399042047        4.6779372633



     Writing config-only to output data dir ./tmp/c_MOF_CO2_free.save/ :
     XML data file
     NEW-OLD atomic charge density approx. for the potential

     Check: negative core charge=   -0.000001

     negative rho (up, down):  2.484E-07 0.000E+00

     total cpu time spent up to now is     5086.4 secs

     per-process dynamical memory:   382.1 Mb

     Self-consistent Calculation

     iteration #  1     ecut=    60.00 Ry     beta= 0.30
     Davidson diagonalization with overlap
     ethr =  1.00E-06,  avg # of iterations =  3.0

     Threshold (ethr) on eigenvalues was too large:
     Diagonalizing with lowered threshold

     Davidson diagonalization with overlap
     ethr =  1.37E-08,  avg # of iterations =  5.0

     negative rho (up, down):  2.527E-07 0.000E+00

     total cpu time spent up to now is     5264.6 secs

     total energy              =   -2938.08672428 Ry
     estimated scf accuracy    <       0.00010979 Ry

     iteration #  2     ecut=    60.00 Ry     beta= 0.30
     Davidson diagonalization with overlap
     ethr =  1.80E-08,  avg # of iterations =  2.0

     negative rho (up, down):  2.612E-07 0.000E+00

     total cpu time spent up to now is     5328.3 secs

     total energy              =   -2938.08672561 Ry
     estimated scf accuracy    <       0.00004266 Ry

     iteration #  3     ecut=    60.00 Ry     beta= 0.30
     Davidson diagonalization with overlap
     ethr =  6.99E-09,  avg # of iterations =  4.0

     negative rho (up, down):  2.632E-07 0.000E+00

     total cpu time spent up to now is     5400.6 secs

     total energy              =   -2938.08673125 Ry
     estimated scf accuracy    <       0.00000453 Ry

     iteration #  4     ecut=    60.00 Ry     beta= 0.30
     Davidson diagonalization with overlap
     ethr =  7.42E-10,  avg # of iterations =  5.0

     negative rho (up, down):  2.643E-07 0.000E+00

     total cpu time spent up to now is     5481.5 secs

     total energy              =   -2938.08673227 Ry
     estimated scf accuracy    <       0.00000092 Ry

     iteration #  5     ecut=    60.00 Ry     beta= 0.30
     Davidson diagonalization with overlap
     ethr =  1.51E-10,  avg # of iterations =  5.5

     negative rho (up, down):  2.646E-07 0.000E+00

     total cpu time spent up to now is     5557.9 secs

     total energy              =   -2938.08673244 Ry
     estimated scf accuracy    <       0.00000019 Ry

     iteration #  6     ecut=    60.00 Ry     beta= 0.30
     Davidson diagonalization with overlap
     ethr =  3.08E-11,  avg # of iterations =  5.5

     negative rho (up, down):  2.646E-07 0.000E+00

     total cpu time spent up to now is     5655.4 secs

     total energy              =   -2938.08673248 Ry
     estimated scf accuracy    <       0.00000006 Ry

     iteration #  7     ecut=    60.00 Ry     beta= 0.30
     Davidson diagonalization with overlap
     ethr =  1.04E-11,  avg # of iterations =  6.0

     negative rho (up, down):  2.645E-07 0.000E+00

     total cpu time spent up to now is     5742.0 secs

     total energy              =   -2938.08673249 Ry
     estimated scf accuracy    <       0.00000001 Ry

     iteration #  8     ecut=    60.00 Ry     beta= 0.30
     Davidson diagonalization with overlap
     ethr =  2.20E-12,  avg # of iterations =  5.0

     negative rho (up, down):  2.640E-07 0.000E+00

     total cpu time spent up to now is     5819.0 secs

     End of self-consistent calculation

          k = 0.0000 0.0000 0.0000 (154911 PWs)   bands (ev):

   -25.0790 -24.1333 -22.3606 -22.3605 -22.2197 -22.2197 -22.2195 -22.2195
   -20.4227 -20.4223 -20.4067 -20.4064 -20.4062 -20.4059 -19.9425 -19.9422
   -19.9261 -19.9260 -19.9259 -19.9257 -18.6538 -18.6529 -18.6523 -18.6514
   -18.6492 -18.6480 -18.0735 -18.0724 -18.0721 -18.0709 -18.0690 -18.0676
   -17.0340 -17.0253 -17.0250 -16.3913 -16.3699 -16.3696 -15.3519 -15.3518
   -15.3423 -15.2889 -15.2888 -15.2796 -14.7226 -14.7165 -14.7131 -14.7131
   -14.7122 -14.7078 -14.6139 -14.5589 -14.5585 -14.4459 -14.4369 -14.4365
   -14.2067 -14.2063 -14.1962 -13.0474 -12.9732 -12.9729 -12.6754 -12.6732
   -12.6667 -12.6608 -12.6590 -12.6543 -11.6250 -11.6239 -11.6170 -11.5925
   -11.5915 -11.5857 -11.5644 -11.5607 -11.5492 -11.1901 -11.1898 -11.1584
   -10.7233 -10.7209 -10.7144 -10.7099 -10.6974 -10.6943 -10.6821 -10.5971
   -10.5967 -10.2819 -10.2816 -10.2399  -9.8423  -9.7383  -9.6858  -9.6820
    -9.6765  -9.6411  -9.6373  -9.6320  -9.4628  -9.4625  -9.3763  -8.8759
    -8.8757  -8.7257  -8.6985  -8.6915  -8.6818  -8.6800  -8.6658  -8.6638
    -8.6509  -8.6503  -8.5042  -8.5039  -8.4149  -8.3665  -8.3637  -8.3403
    -8.3025  -8.2905  -8.2877  -8.0072  -8.0071  -7.8105  -7.6898  -7.6829
    -7.6828  -7.6069  -7.6066  -7.5363  -7.4507  -7.4506  -7.4033  -7.3509
    -7.3472  -7.3461  -7.3200  -7.3197  -7.2292  -7.2229  -7.2225  -7.2178
    -7.1666  -7.1666  -7.0721  -7.0684  -7.0609  -7.0603  -6.9940  -6.9939
    -6.9004  -6.8970  -6.8945  -6.8343  -6.8324  -6.6951  -6.6395  -6.5861
    -6.5858  -6.5338  -6.5141  -6.5108  -6.5042  -6.4883  -6.4864  -6.4553
    -6.4530  -6.4335  -6.4113  -6.3087  -6.2827  -6.1828  -6.1820  -6.1696
    -6.1679  -6.0939  -6.0921  -6.0629  -6.0512  -6.0510  -6.0349  -5.9926
    -5.9921  -5.9526  -5.9282  -5.9251  -5.9047  -5.6445  -5.6311  -5.6241
    -5.6215  -5.6168  -5.6139  -5.5148  -5.5143  -5.4120  -5.3898  -5.3893
    -5.3885  -5.3210  -5.3209  -5.2865  -5.2553  -5.2309  -5.2287  -5.2116
    -5.2054  -5.2035  -5.1122  -5.1109  -5.0944  -5.0719  -5.0690  -5.0254
    -5.0223  -5.0184  -4.9019  -4.9015  -4.8873  -4.7525  -4.7522  -4.6466
    -4.4354  -4.4343  -4.3728  -4.3707  -4.3506  -4.3394  -4.2829  -4.2704
    -4.2689  -4.2012  -4.2006  -4.1604  -4.1326  -4.1288  -4.1220  -4.1133
    -4.0867  -4.0812  -3.9557  -3.9528  -3.9390  -3.9275  -3.8786  -3.8748
    -3.8256  -3.8226  -3.7704  -3.7660  -3.7236  -3.7206  -3.7193  -3.6080
    -3.5881  -3.5868  -3.3790  -3.3787  -3.3676  -3.3674  -3.3441  -3.0795
    -3.0794  -3.0276  -3.0084  -2.9859  -2.9859  -2.7718  -2.7708  -2.6964
    -2.6955  -2.5570  -2.5534  -2.4629  -2.4628  -2.4563  -2.4561  -2.3866
    -2.3797  -2.1328  -2.1325  -2.1209  -2.1206  -2.0952  -2.0859  -1.9128
    -1.9127  -1.8855  -1.8853  -1.7353  -1.7347  -1.5240  -1.5237  -1.4536
    -1.2989  -1.2963  -1.2935  -1.2575  -1.2567  -1.2534  -0.6185  -0.6182
    -0.5415

          k = 0.0000 0.0000-1.5660 (154844 PWs)   bands (ev):

   -25.0789 -24.1335 -22.3014 -22.3013 -22.3012 -22.3011 -22.1889 -22.1889
   -20.4548 -20.4546 -20.4545 -20.4542 -20.3926 -20.3922 -19.9206 -19.9204
   -19.9202 -19.9200 -19.8973 -19.8971 -18.6175 -18.6163 -18.6148 -18.6137
   -18.6123 -18.6111 -18.1250 -18.1237 -18.1214 -18.1202 -18.1193 -18.1180
   -17.0152 -17.0150 -17.0145 -16.3794 -16.3791 -16.3766 -15.3471 -15.3471
   -15.3375 -15.2841 -15.2841 -15.2748 -14.7124 -14.7121 -14.7091 -14.7091
   -14.7072 -14.7040 -14.5743 -14.5739 -14.5597 -14.4884 -14.4880 -14.4830
   -14.1987 -14.1984 -14.1916 -13.0111 -13.0108 -12.9820 -12.6832 -12.6784
   -12.6751 -12.6701 -12.6648 -12.6616 -11.6073 -11.6069 -11.5627 -11.5489
   -11.5472 -11.5403 -11.4939 -11.4902 -11.4839 -11.1459 -11.1456 -11.0849
   -10.7550 -10.7534 -10.7486 -10.7294 -10.7272 -10.7225 -10.6086 -10.6084
   -10.5399 -10.2853 -10.2850 -10.2514  -9.8268  -9.6985  -9.6956  -9.6857
    -9.6584  -9.6576  -9.6451  -9.6445  -9.6397  -9.4885  -9.1982  -9.1981
    -8.8254  -8.7704  -8.7694  -8.7673  -8.7661  -8.7466  -8.7325  -8.7268
    -8.6502  -8.6496  -8.4383  -8.3421  -8.3420  -8.1418  -8.1391  -8.1258
    -8.0616  -8.0595  -8.0529  -7.9495  -7.8963  -7.8962  -7.8374  -7.8371
    -7.7717  -7.5905  -7.5057  -7.5053  -7.4468  -7.4465  -7.4446  -7.4094
    -7.3925  -7.3906  -7.3200  -7.3092  -7.2702  -7.2700  -7.2563  -7.1920
    -7.1896  -7.1708  -7.1520  -7.1487  -7.1101  -7.1080  -6.9370  -6.9082
    -6.8575  -6.8572  -6.7602  -6.7580  -6.7243  -6.6368  -6.6348  -6.6284
    -6.5733  -6.5728  -6.5479  -6.5027  -6.4762  -6.4757  -6.4472  -6.4448
    -6.3957  -6.3951  -6.3812  -6.3594  -6.3106  -6.3096  -6.2785  -6.2785
    -6.2601  -6.2597  -6.2293  -6.1822  -6.1739  -6.1734  -6.1040  -6.0903
    -6.0867  -6.0853  -6.0829  -6.0703  -6.0391  -6.0119  -5.9818  -5.9777
    -5.8651  -5.8308  -5.8256  -5.5510  -5.5507  -5.5302  -5.4838  -5.4055
    -5.4049  -5.3746  -5.3734  -5.3121  -5.2913  -5.2902  -5.2859  -5.2379
    -5.2003  -5.1995  -5.1161  -5.1151  -5.0628  -5.0610  -5.0569  -5.0131
    -5.0114  -5.0067  -4.7199  -4.7196  -4.7124  -4.6763  -4.6761  -4.5938
    -4.5050  -4.4097  -4.3843  -4.3835  -4.3622  -4.3619  -4.2611  -4.2611
    -4.2590  -4.1261  -4.1232  -4.1145  -4.0964  -4.0931  -4.0733  -4.0583
    -4.0559  -4.0550  -3.9624  -3.9289  -3.9250  -3.8907  -3.8880  -3.8132
    -3.8034  -3.6736  -3.5922  -3.5593  -3.5588  -3.4161  -3.4144  -3.4064
    -3.3977  -3.3955  -3.3867  -3.3554  -3.3549  -3.2785  -3.2783  -3.0118
    -2.9293  -2.9190  -2.9190  -2.8949  -2.8949  -2.8091  -2.7612  -2.7611
    -2.7231  -2.7228  -2.7097  -2.4401  -2.4357  -2.3972  -2.3971  -2.3901
    -2.3900  -2.1995  -2.1639  -2.1636  -2.1226  -2.0769  -2.0766  -1.9281
    -1.9280  -1.9131  -1.9131  -1.9077  -1.8740  -1.5092  -1.5090  -1.4512
    -1.2929  -1.2909  -1.2827  -1.2582  -1.2565  -1.2514  -0.5977  -0.5793
    -0.5790

     highest occupied level (ev):    -0.5415

!    total energy              =   -2938.08673250 Ry
     estimated scf accuracy    <          1.7E-09 Ry

     The total energy is the sum of the following terms:
     one-electron contribution =   -5752.66812670 Ry
     hartree contribution      =    3071.73485228 Ry
     xc contribution           =    -693.83531766 Ry
     ewald contribution        =    1356.57730268 Ry
     one-center paw contrib.   =    -919.89544310 Ry

     convergence has been achieved in   8 iterations

     negative rho (up, down):  2.640E-07 0.000E+00

     Forces acting on atoms (cartesian axes, Ry/au):

     atom    1 type  1   force =     0.00028422    0.00026081    0.00026742
     atom    2 type  1   force =    -0.00036940    0.00010503    0.00027286
     atom    3 type  1   force =     0.00009565   -0.00038368    0.00027050
     atom    4 type  1   force =     0.00027566   -0.00026739   -0.00027286
     atom    5 type  1   force =     0.00008376    0.00037654   -0.00026742
     atom    6 type  1   force =    -0.00038010   -0.00010900   -0.00027050
     atom    7 type  2   force =     0.00020326   -0.00016455    0.00030185
     atom    8 type  2   force =     0.00004053    0.00026104    0.00030381
     atom    9 type  2   force =    -0.00024415   -0.00009347    0.00030213
     atom   10 type  2   force =     0.00020580    0.00016562   -0.00030381
     atom   11 type  2   force =    -0.00024413    0.00009375   -0.00030185
     atom   12 type  2   force =     0.00004112   -0.00025818   -0.00030213
     atom   13 type  2   force =    -0.00042121   -0.00019843    0.00045054
     atom   14 type  2   force =     0.00038162   -0.00026368    0.00044937
     atom   15 type  2   force =     0.00004319    0.00045913    0.00044262
     atom   16 type  2   force =    -0.00041916    0.00019865   -0.00044937
     atom   17 type  2   force =     0.00003876   -0.00046399   -0.00045054
     atom   18 type  2   force =     0.00037603    0.00026697   -0.00044262
     atom   19 type  2   force =    -0.00048530   -0.00025862    0.00002782
     atom   20 type  2   force =     0.00046655   -0.00028954    0.00002783
     atom   21 type  2   force =     0.00001466    0.00054273    0.00002013
     atom   22 type  2   force =    -0.00048402    0.00025928   -0.00002783
     atom   23 type  2   force =     0.00001868   -0.00054959   -0.00002782
     atom   24 type  2   force =     0.00046269    0.00028406   -0.00002013
     atom   25 type  3   force =     0.00034315   -0.00009122    0.00075106
     atom   26 type  3   force =    -0.00009219    0.00034321    0.00075122
     atom   27 type  3   force =    -0.00025013   -0.00025264    0.00074710
     atom   28 type  3   force =     0.00034333    0.00009177   -0.00075122
     atom   29 type  3   force =    -0.00025058    0.00025156   -0.00075106
     atom   30 type  3   force =    -0.00009373   -0.00034293   -0.00074710
     atom   31 type  3   force =    -0.00017690    0.00032093    0.00003900
     atom   32 type  3   force =    -0.00018890   -0.00031395    0.00003773
     atom   33 type  3   force =     0.00036764   -0.00000521    0.00003780
     atom   34 type  3   force =    -0.00017744   -0.00032057   -0.00003773
     atom   35 type  3   force =     0.00036638    0.00000727   -0.00003900
     atom   36 type  3   force =    -0.00018833    0.00031578   -0.00003780
     atom   37 type  3   force =    -0.00048564    0.00009134    0.00011448
     atom   38 type  3   force =     0.00016248   -0.00046696    0.00011521
     atom   39 type  3   force =     0.00032293    0.00037578    0.00011483
     atom   40 type  3   force =    -0.00048564   -0.00009277   -0.00011521
     atom   41 type  3   force =     0.00032193   -0.00037490   -0.00011448
     atom   42 type  3   force =     0.00016397    0.00046756   -0.00011483
     atom   43 type  3   force =    -0.00016743    0.00014920    0.00017059
     atom   44 type  3   force =    -0.00004635   -0.00021727    0.00017086
     atom   45 type  3   force =     0.00020996    0.00006915    0.00016718
     atom   46 type  3   force =    -0.00016499   -0.00014877   -0.00017086
     atom   47 type  3   force =     0.00021292   -0.00007039   -0.00017059
     atom   48 type  3   force =    -0.00004510    0.00021641   -0.00016718
     atom   49 type  3   force =     0.00036442   -0.00011102    0.00018051
     atom   50 type  3   force =    -0.00006925    0.00035370    0.00018139
     atom   51 type  3   force =    -0.00026719   -0.00022840    0.00017386
     atom   52 type  3   force =     0.00034093    0.00011688   -0.00018139
     atom   53 type  3   force =    -0.00027836    0.00026009   -0.00018051
     atom   54 type  3   force =    -0.00006421   -0.00034559   -0.00017386
     atom   55 type  3   force =     0.00015804   -0.00016752    0.00119989
     atom   56 type  3   force =     0.00008648    0.00021640    0.00119503
     atom   57 type  3   force =    -0.00023128   -0.00003530    0.00119258
     atom   58 type  3   force =     0.00014417    0.00018309   -0.00119503
     atom   59 type  3   force =    -0.00022410    0.00005311   -0.00119989
     atom   60 type  3   force =     0.00008507   -0.00021794   -0.00119258
     atom   61 type  3   force =    -0.00024456    0.00012447   -0.00053248
     atom   62 type  3   force =     0.00002744   -0.00028249   -0.00053764
     atom   63 type  3   force =     0.00022895    0.00015654   -0.00051957
     atom   64 type  3   force =    -0.00025836   -0.00011748    0.00053764
     atom   65 type  3   force =     0.00023008   -0.00014956    0.00053248
     atom   66 type  3   force =     0.00002109    0.00027654    0.00051957
     atom   67 type  3   force =     0.00011454    0.00013277   -0.00094402
     atom   68 type  3   force =    -0.00015113    0.00003809   -0.00094868
     atom   69 type  3   force =     0.00004678   -0.00015406   -0.00094791
     atom   70 type  3   force =     0.00010855   -0.00011184    0.00094868
     atom   71 type  3   force =     0.00005771    0.00016558    0.00094402
     atom   72 type  3   force =    -0.00015681   -0.00003652    0.00094791
     atom   73 type  3   force =     0.00054861    0.00022003    0.00027901
     atom   74 type  3   force =    -0.00045556    0.00035967    0.00026444
     atom   75 type  3   force =    -0.00009105   -0.00057126    0.00028020
     atom   76 type  3   force =     0.00053926   -0.00021470   -0.00026444
     atom   77 type  3   force =    -0.00008375    0.00058512   -0.00027901
     atom   78 type  3   force =    -0.00044920   -0.00036448   -0.00028020
     atom   79 type  3   force =     0.00043100    0.00031219    0.00005330
     atom   80 type  3   force =    -0.00043429    0.00020383    0.00004328
     atom   81 type  3   force =     0.00003420   -0.00047300    0.00004618
     atom   82 type  3   force =     0.00039367   -0.00027419   -0.00004328
     atom   83 type  3   force =     0.00005486    0.00052935   -0.00005330
     atom   84 type  3   force =    -0.00042673   -0.00020688   -0.00004618
     atom   85 type  3   force =     0.00010495    0.00024728    0.00020824
     atom   86 type  3   force =    -0.00029145   -0.00005456    0.00027198
     atom   87 type  3   force =     0.00016048   -0.00019039    0.00025759
     atom   88 type  3   force =     0.00009847   -0.00027969   -0.00027198
     atom   89 type  3   force =     0.00016168    0.00021453   -0.00020824
     atom   90 type  3   force =    -0.00024512    0.00004378   -0.00025759
     atom   91 type  3   force =     0.00028200    0.00017179   -0.00013254
     atom   92 type  3   force =    -0.00027086    0.00012983   -0.00014605
     atom   93 type  3   force =     0.00000938   -0.00030772   -0.00014458
     atom   94 type  3   force =     0.00024786   -0.00016966    0.00014605
     atom   95 type  3   force =     0.00000778    0.00033011    0.00013254
     atom   96 type  3   force =    -0.00027118   -0.00014574    0.00014458
     atom   97 type  3   force =    -0.00025369   -0.00022776   -0.00045825
     atom   98 type  3   force =     0.00035356   -0.00011078   -0.00048329
     atom   99 type  3   force =    -0.00008007    0.00036416   -0.00048833
     atom  100 type  3   force =    -0.00027272    0.00025080    0.00048329
     atom  101 type  3   force =    -0.00007040   -0.00033358    0.00045825
     atom  102 type  3   force =     0.00035541    0.00011273    0.00048833
     atom  103 type  3   force =    -0.00006744    0.00019920    0.00006065
     atom  104 type  3   force =    -0.00012438   -0.00016733    0.00005885
     atom  105 type  3   force =     0.00020781   -0.00002713    0.00005514
     atom  106 type  3   force =    -0.00008272   -0.00019138   -0.00005885
     atom  107 type  3   force =     0.00020624    0.00004119   -0.00006065
     atom  108 type  3   force =    -0.00012740    0.00016641   -0.00005514
     atom  109 type  3   force =    -0.00007939   -0.00012127    0.00053687
     atom  110 type  3   force =     0.00015227   -0.00001313    0.00054026
     atom  111 type  3   force =    -0.00006365    0.00013849    0.00053324
     atom  112 type  3   force =    -0.00008751    0.00012530   -0.00054026
     atom  113 type  3   force =    -0.00006533   -0.00012939   -0.00053687
     atom  114 type  3   force =     0.00015176    0.00001412   -0.00053324
     atom  115 type  3   force =     0.00006797   -0.00004435   -0.00027322
     atom  116 type  3   force =     0.00000354    0.00007465   -0.00026855
     atom  117 type  3   force =    -0.00006826   -0.00003589   -0.00027240
     atom  118 type  3   force =     0.00006288    0.00004039    0.00026855
     atom  119 type  3   force =    -0.00007239    0.00003669    0.00027322
     atom  120 type  3   force =     0.00000305   -0.00007706    0.00027240
     atom  121 type  3   force =    -0.00006348   -0.00014416   -0.00004892
     atom  122 type  3   force =     0.00015853    0.00001958   -0.00004731
     atom  123 type  3   force =    -0.00009416    0.00012730   -0.00005211
     atom  124 type  3   force =    -0.00006231    0.00014708    0.00004731
     atom  125 type  3   force =    -0.00009311   -0.00012706    0.00004892
     atom  126 type  3   force =     0.00015732   -0.00001789    0.00005211
     atom  127 type  4   force =     0.00000466    0.00029252   -0.00001428
     atom  128 type  4   force =    -0.00025767   -0.00014646   -0.00001464
     atom  129 type  4   force =     0.00024859   -0.00014820   -0.00001145
     atom  130 type  4   force =     0.00000200   -0.00029637    0.00001464
     atom  131 type  4   force =     0.00025100    0.00015029    0.00001428
     atom  132 type  4   force =    -0.00025264    0.00014119    0.00001145
     atom  133 type  4   force =     0.00043199    0.00013637    0.00001047
     atom  134 type  4   force =    -0.00032904    0.00030410    0.00000977
     atom  135 type  4   force =    -0.00009605   -0.00044658    0.00000419
     atom  136 type  4   force =     0.00042788   -0.00013291   -0.00000977
     atom  137 type  4   force =    -0.00009790    0.00044230   -0.00001047
     atom  138 type  4   force =    -0.00033873   -0.00030648   -0.00000419
     atom  139 type  4   force =    -0.00034519   -0.00050343   -0.00021182
     atom  140 type  4   force =     0.00060646   -0.00004914   -0.00021099
     atom  141 type  4   force =    -0.00026391    0.00055571   -0.00020182
     atom  142 type  4   force =    -0.00034579    0.00050064    0.00021099
     atom  143 type  4   force =    -0.00026339   -0.00055066    0.00021182
     atom  144 type  4   force =     0.00061322    0.00004930    0.00020182
     atom  145 type  4   force =     0.00030012    0.00053995    0.00043472
     atom  146 type  4   force =    -0.00061531   -0.00000907    0.00043323
     atom  147 type  4   force =     0.00031540   -0.00052918    0.00042819
     atom  148 type  4   force =     0.00029980   -0.00053741   -0.00043323
     atom  149 type  4   force =     0.00031755    0.00052988   -0.00043472
     atom  150 type  4   force =    -0.00061598    0.00000855   -0.00042819
     atom  151 type  4   force =    -0.00003764   -0.00129184    0.00022919
     atom  152 type  4   force =     0.00113452    0.00061028    0.00022888
     atom  153 type  4   force =    -0.00110208    0.00068081    0.00023294
     atom  154 type  4   force =    -0.00003874    0.00128767   -0.00022888
     atom  155 type  4   force =    -0.00109995   -0.00067852   -0.00022919
     atom  156 type  4   force =     0.00114064   -0.00061403   -0.00023294
     atom  157 type  4   force =    -0.00000202    0.00092146   -0.00128289
     atom  158 type  4   force =    -0.00079311   -0.00046170   -0.00128276
     atom  159 type  4   force =     0.00080065   -0.00045907   -0.00128669
     atom  160 type  4   force =    -0.00000329   -0.00091771    0.00128276
     atom  161 type  4   force =     0.00079902    0.00045898    0.00128289
     atom  162 type  4   force =    -0.00079789    0.00046385    0.00128669
     atom  163 type  4   force =     0.00031886    0.00104339   -0.00094220
     atom  164 type  4   force =    -0.00106115   -0.00024653   -0.00094488
     atom  165 type  4   force =     0.00073209   -0.00078864   -0.00092679
     atom  166 type  4   force =     0.00031708   -0.00104225    0.00094488
     atom  167 type  4   force =     0.00074417    0.00079784    0.00094220
     atom  168 type  4   force =    -0.00104902    0.00023969    0.00092679
     atom  169 type  4   force =     0.00019433   -0.00001838   -0.00009122
     atom  170 type  4   force =    -0.00006052    0.00016815   -0.00009609
     atom  171 type  4   force =    -0.00011352   -0.00013162   -0.00009239
     atom  172 type  4   force =     0.00017588    0.00003166    0.00009609
     atom  173 type  4   force =    -0.00011308    0.00015911    0.00009122
     atom  174 type  4   force =    -0.00005723   -0.00016412    0.00009239
     atom  175 type  4   force =     0.00008499   -0.00034813   -0.00083235
     atom  176 type  4   force =     0.00026965    0.00023898   -0.00083127
     atom  177 type  4   force =    -0.00034700    0.00012853   -0.00082804
     atom  178 type  4   force =     0.00007214    0.00035301    0.00083127
     atom  179 type  4   force =    -0.00034398   -0.00010046    0.00083235
     atom  180 type  4   force =     0.00028481   -0.00023624    0.00082804
     atom  181 type  4   force =     0.00003005    0.00005320   -0.00011298
     atom  182 type  4   force =    -0.00007094    0.00000941   -0.00010361
     atom  183 type  4   force =     0.00002413   -0.00003846   -0.00011140
     atom  184 type  4   force =     0.00004362   -0.00005673    0.00010361
     atom  185 type  4   force =     0.00003105    0.00005262    0.00011298
     atom  186 type  4   force =    -0.00004537    0.00000167    0.00011140
     atom  187 type  4   force =     0.00013306    0.00032161    0.00065663
     atom  188 type  4   force =    -0.00032913   -0.00004970    0.00066091
     atom  189 type  4   force =     0.00020822   -0.00025203    0.00066002
     atom  190 type  4   force =     0.00012152   -0.00030988   -0.00066091
     atom  191 type  4   force =     0.00021200    0.00027604   -0.00065663
     atom  192 type  4   force =    -0.00032238    0.00005430   -0.00066002
     atom  193 type  4   force =     0.00016959    0.00021287   -0.00015691
     atom  194 type  4   force =    -0.00025503    0.00004373   -0.00014279
     atom  195 type  4   force =     0.00008448   -0.00025038   -0.00014847
     atom  196 type  4   force =     0.00016539   -0.00019900    0.00014279
     atom  197 type  4   force =     0.00009955    0.00025330    0.00015691
     atom  198 type  4   force =    -0.00025908   -0.00005203    0.00014847
     atom  199 type  4   force =    -0.00012153    0.00009815   -0.00000818
     atom  200 type  4   force =    -0.00000488   -0.00016730   -0.00000104
     atom  201 type  4   force =     0.00014920    0.00007697   -0.00000612
     atom  202 type  4   force =    -0.00014245   -0.00008788    0.00000104
     atom  203 type  4   force =     0.00014577   -0.00005617    0.00000818
     atom  204 type  4   force =    -0.00000794    0.00016770    0.00000612
     atom  205 type  5   force =     0.00002796    0.00010984    0.00006833
     atom  206 type  5   force =    -0.00009356   -0.00004674    0.00007061
     atom  207 type  5   force =     0.00008770   -0.00004617    0.00006730
     atom  208 type  5   force =     0.00000630   -0.00010440   -0.00007061
     atom  209 type  5   force =     0.00008114    0.00007914   -0.00006833
     atom  210 type  5   force =    -0.00008383    0.00005286   -0.00006730
     atom  211 type  5   force =    -0.00010380   -0.00018280    0.00005514
     atom  212 type  5   force =     0.00022396   -0.00000613    0.00006458
     atom  213 type  5   force =    -0.00010674    0.00019149    0.00005870
     atom  214 type  5   force =    -0.00011729    0.00019089   -0.00006458
     atom  215 type  5   force =    -0.00010641   -0.00018129   -0.00005514
     atom  216 type  5   force =     0.00021921    0.00000331   -0.00005870
     atom  217 type  4   force =    -0.00010361   -0.00017946    0.00000000
     atom  218 type  2   force =    -0.00011850   -0.00015974   -0.00034896
     atom  219 type  2   force =    -0.00007909   -0.00018249    0.00034896

     Total force =     0.009846     Total SCF correction =     0.000059
     Energy error            =      1.3E-04 Ry
     Gradient error          =      1.3E-03 Ry/Bohr

     number of scf cycles    =   7
     number of bfgs steps    =   6

     energy             old  =   -2938.0866024024 Ry
     energy             new  =   -2938.0867324960 Ry

     CASE: energy            _new < energy            _old

     new trust radius        =       0.0026460467 bohr
     new conv_thr            =       0.0000000013 Ry


ATOMIC_POSITIONS (angstrom)
Mg              10.2291904721        5.4274986341        5.8274962220
Mg              12.1386842918        6.1450689258        1.1546356570
Mg              10.5625301469        7.4400276100        3.4910959720
Mg              -0.7475563481       13.5849434280        5.8546243430
Mg              -0.4142435398       11.5724881259        1.1817637780
Mg               1.1619878417       12.8674332404        3.5181640280
O               11.4484202966        4.4588346201        0.1788267515
O               12.3680219192        7.6851494467        2.5152549112
O                9.1140959448        6.8683932747        4.8516649870
O                0.4715236932       14.5535958999        4.4940050888
O               -1.8627460961       12.1440401201        6.8304332485
O                1.3911550867       11.3272352581        2.1575950130
O               10.8155967322        5.4809665707        2.6539260025
O               11.7992438522        6.6260495477        4.9903249473
O               10.3157056276        6.9053706443        0.3174921643
O               -0.1612946910       13.5314696953        2.0189350527
O               -0.6611420785       12.1070648125        4.3553339975
O                0.8223735868       12.3863484536        6.6917678357
O               10.2326143991        4.0564581811        4.2820412167
O               13.3243694135        6.8334652971        6.6184617811
O                9.3735007593        8.1224407322        1.9456249291
O               -0.7442301635       14.9559750500        0.3907982189
O               -1.6033113652       10.8899331073        2.7272187833
O                2.3474896352       12.1789101460        5.0636350709
H               10.5707927617        1.7585654873        3.7761146339
H               15.1453111476        8.2752942889        6.1125365090
H                7.2144079821        8.9785899813        1.4396899070
H               -0.4060404958       17.2538713465        0.8967234910
H               -3.7624339946       10.0338578135        3.2331453661
H                4.1684830229       10.7371555764        5.5695700930
H                0.8058922318       18.9795009123        0.0620338711
H               -5.8628409250       10.2205978859        2.3984490940
H                5.0569648905        8.8247786120        4.7348715463
H               11.7827178735        0.0329297635        4.6108109060
H               16.0337838254       10.1876736015        6.9472261289
H                5.1140000155        8.7918493672        2.2743884537
H               11.8783058192        2.2078814556        6.0413363597
H               14.1024243616        9.1829809496        1.3684943642
H                6.9497698550        7.6215869592        3.7049149713
H                0.9014826041       16.8045482269        5.6407656358
H               -4.0270714804       11.3908553212        0.9679236403
H                3.1256029964        9.8294707244        3.3043450287
H                2.7226998989       15.5477629678        1.4785902111
H               -3.8492816761       13.5964917079        3.8150154842
H                1.1265658151        8.8806226757        6.1514266200
H               13.6995480595        3.4646701361        3.1942445158
H               12.1034077527       10.1318087632        5.5306697889
H                7.1275619311        5.4159459527        0.8578333800
H                3.6209068848       14.1500713124        5.8984810454
H               -3.0879386545       15.0731459530        1.2256642973
H               -0.5328893804        8.8015567849        3.5619965694
H               14.5976966375        4.8623396564        5.7835957027
H               10.4438677795       10.2108330032        1.1107789546
H                7.8888164588        3.9392826517        3.4472634306
H                6.0020109646       13.6413343587        5.6262331796
H               -3.8378897951       17.3896519241        0.9533998579
H               -2.1640930984        6.9937660964        3.2897928575
H               16.9788252268        5.3711159025        6.0558601421
H                8.8127366139       12.0185611485        1.3830268204
H                7.1388256568        1.6227234488        3.7194671425
H                5.4018192646       14.9020215268        4.5361105587
H               -4.6297625451       16.2396033274        6.8725678263
H               -0.7722116902        6.8832169570        2.1996303028
H               16.3787903015        4.1103096862        0.1366921737
H               10.2046195776       12.1291234732        2.4731494413
H                6.3471465897        2.7728535377        4.8096296972
H                5.0330582482       16.4294010879        1.3729754683
H               -5.7679561637       15.1564832855        3.7094612396
H                0.7348724359        6.4389671323        6.0458940169
H               16.0098776392        2.5830450770        3.2997987604
H               11.7117495870       12.5734568455        5.6362845317
H                5.2088728928        3.8559017642        0.9633659831
H                5.5945899390       15.1454421203        2.4496050639
H               -4.9369597059       16.2848124547        4.7860747898
H               -0.6577812934        6.5944708090        0.1131627278
H               16.5715411345        3.8668737045        2.2231852102
H               10.3190426582       12.4177780710        4.5596549361
H                6.0398698918        2.7275800942        6.8960972722
H                7.2668051795       14.3999287569        0.8065451534
H               -5.1273107052       18.1057616038        3.1431231220
H               -2.1395719244        5.5193761199        5.4794091017
H               18.2437048564        4.6124994781        3.8661368780
H                8.8373015265       13.4932022682        6.2027148466
H                5.8497058951        0.9067644202        1.5298508983
H                7.4994106002       16.1209645918        1.1042189678
H               -6.7331505831       17.4461687958        3.4417433473
H               -0.7655270995        4.4582467575        5.7781838017
H               18.4754006675        2.8920049454        3.5675166527
H               10.2114595699       14.5551623891        5.9050410322
H                4.2437184981        1.5661574633        1.2310761983
H                6.2534436799       16.6750832316        6.0202549895
H               -6.5907096120       16.0905136632        1.3469892912
H                0.3375050511        5.2597512944        3.6835874143
H               17.2301483982        2.3375348786        5.6622707088
H               11.3143238489       13.7531827038        0.9890050105
H                4.3863257131        2.9221635953        3.3256725857
H                7.5698282376       15.5582730479        5.6372347135
H               -6.2815962700       17.7885075453        0.9637428498
H               -1.2880902018        4.6785445258        3.3001019784
H               18.5460975647        3.4542318264        6.0455171502
H                9.6889455797       14.3348000800        1.3720252865
H                4.6957835130        1.2237534258        3.7091580216
H                2.3372607220       13.9799936103        0.7865502633
H               -2.2988664790       14.0466273281        3.1229654126
H               -0.0384456234        9.9982968651        5.4593790687
H               13.3141693431        5.0324368933        3.8862945874
H               10.9383992503        9.0141239656        6.2227097367
H                8.6780018914        4.9658535459        1.5498809313
H                4.8347506634       13.4137848012        0.8709785182
H               -3.0572277669       16.4925833142        3.2074005002
H               -1.7775459331        8.1185441893        5.5437898814
H               15.8116100076        5.5986547458        3.8018594998
H                9.1993030670       10.8939092961        6.1382814818
H                7.9196384762        2.5198721602        1.4654701186
H                3.6974421232       13.1537419822        2.8535841260
H               -2.2633049007       15.6376337210        5.1900308661
H               -1.4340957702        9.2335075104        0.5171659306
H               14.6742405078        5.8587373199        1.8192291339
H                9.5427536498        9.7789497989        4.1556758740
H                8.7134999553        3.3747903867        6.4920940694
H                3.2885301091       14.6034761523        3.4774806565
H               -3.3144099728       14.5586194182        5.8139315518
H                0.0259118262        8.8627656767        1.1410458283
H               14.2653392466        4.4089464741        1.1953284482
H               11.0027162769       10.1496886916        3.5317793435
H                7.6624243107        4.4538231381        5.8682141717
C               11.3177603575        3.2781249867        0.8021297610
C               13.4558615226        8.1623835403        3.1385472461
C                8.1568951592        7.5719105814        5.4749716432
C                0.3409007401       15.7343096786        3.8707127539
C               -2.8199406634       11.4405304769        6.2071302390
C                2.4790193391       10.8500337147        1.5342883568
C               10.9480051364        3.1271669785        2.1852504849
C               13.7714689038        7.9176555323        4.5216707099
C                8.2110404448        7.9676008438        6.8580873315
C               -0.0288436225       15.8852696842        2.4875892901
C               -2.7657965230       11.0448340580        4.8240095151
C                2.7946245155       11.0947700385        0.1511726685
C               10.8730834282        1.8302553309        2.7393515671
C               14.9320825614        8.5012323500        5.0757718066
C                7.1253409201        8.6809353020        0.4029355712
C               -0.1037581021       17.1821790046        1.9334881934
C               -3.8514941021       10.3314941318        4.2699084329
C                3.9552400401       10.5111938984        6.6063244288
C               11.1646364117        0.6705563883        2.0159206571
C               15.7906307983        9.3335750459        4.3523368774
C                5.9752380935        9.0082937992        6.6887606670
C                0.1877976987       18.3418749360        2.6569231226
C               -5.0015993389       10.0041369507        4.9933393429
C                4.8137922282        9.6788548822        0.3204993330
C               11.5169407198        0.8355535718        0.6536732693
C               15.4715870944        9.5561745794        2.9900879809
C                5.9419872771        8.6207041225        5.3265144199
C                0.5400964016       18.1768747503        4.0191720191
C               -5.0348597404       10.3917400231        6.3555867307
C                4.4947551301        9.4562639921        1.6827455801
C               11.5789541279        2.0918225621        0.0676046498
C               14.3526204422        8.9817473004        2.4040172088
C                6.9989365832        7.9388552212        4.7404445985
C                0.6021111115       16.9206075640        4.6052427912
C               -3.9779055850       11.0735797051        6.9416553502
C                3.3757820070       10.0306844911        2.2688154015
C               10.6493793529        4.2765444352        3.0910921320
C               12.9253950303        7.0843453614        5.4275076993
C                9.3557315686        7.6515236030        0.7546703765
C               -0.3274744630       14.7358931309        1.5817523007
C               -1.6210935551       11.3609052718        3.9181678680
C                1.9485480336       11.9280630108        6.2545896235
C                4.4472071121       14.4481479541        0.7479450051
C               -3.7591815783       15.6397429711        3.0843605264
C               -0.6879921413        7.9370064933        5.4207932279
C               15.4240055108        4.5643247413        3.9248994736
C               10.2888596098       11.0754683120        6.2613149949
C                7.2176453238        3.3726845747        1.5884667721
C                5.5904914405       14.6691115184        5.5858101774
C               -4.5221447188       16.5193298848        0.9129828314
C               -1.0682317001        6.8364973913        3.2493166673
C               16.5672316932        4.3433727363        6.0962771686
C                9.9085775057       12.1760633662        1.4234498226
C                6.4546962637        2.4931329062        3.7599433327
C                6.6186910436       15.6529782541        6.1704774150
C               -5.8882529660       16.9178871938        1.4974894064
C               -0.7303325970        5.4542196047        3.8340934582
C               17.5954465712        3.3595669444        5.5117705936
C               10.2465312912       13.5584437106        0.8387825850
C                5.0886590341        2.0946232202        3.1751665418
C                5.4551610101       15.4169407532        1.3993231972
C               -5.1020858295       16.0281746493        3.7358408442
C               -0.3529656574        6.5798095730        6.0721816281
C               16.4318493373        3.5955513841        3.2734191558
C               10.6238818359       12.4327783930        5.6099368028
C                5.8747650709        2.9842275605        0.9370783719
C                6.8118926709       15.3890001932        0.6681353023
C               -5.7558913280       17.2170102148        3.0043654492
C               -1.0555742772        5.4189561558        5.3410009445
C               17.7883138872        3.6237569960        4.0048945508
C                9.9213187707       13.5937721974        6.3411246977
C                5.2207408315        1.7953239382        1.6682590555
C                3.0582786913       14.5104115681        1.4078612888
C               -3.1187014293       14.4057921084        3.7443202277
C                0.0604061593        9.1086835058        6.0806905063
C               14.0351326423        4.5020213897        3.2649397723
C               11.0372456918        9.9037528226        5.6013987112
C                7.8581482315        4.6066550215        0.9285694937
N                4.3068759110       14.7778214047        6.3190905669
N               -3.9745494977       15.3533756132        1.6462672789
N               -0.3323073964        7.8936376627        3.9826481513
N               15.2836880637        4.2346269730        5.3629927211
N               10.6445307937       11.1187746522        0.6901694331
N                7.0022444424        3.6590321842        3.0266118487
N                3.0088642713       13.9083626068        2.7846232207
N               -2.5726289082       14.6640300026        5.1210459767
N               -0.4362794135        9.4524749930        0.4481791956
N               13.9857369582        5.1040530123        1.8882140233
N               10.5405632069        9.5599341989        4.2246367793
N                8.4042231795        4.3484084412        6.5610808044
C               10.7039637101       18.5398089883        3.5046300000
O               10.7037984155       18.5398331306        2.3312234293
O               10.7040672652       18.5396779101        4.6780365707



     Writing config-only to output data dir ./tmp/c_MOF_CO2_free.save/ :
     XML data file
     NEW-OLD atomic charge density approx. for the potential

     Check: negative core charge=   -0.000001

     negative rho (up, down):  2.523E-07 0.000E+00

     total cpu time spent up to now is     5854.0 secs

     per-process dynamical memory:   383.0 Mb

     Self-consistent Calculation

     iteration #  1     ecut=    60.00 Ry     beta= 0.30
     Davidson diagonalization with overlap
     ethr =  1.00E-06,  avg # of iterations =  2.0

     Threshold (ethr) on eigenvalues was too large:
     Diagonalizing with lowered threshold

     Davidson diagonalization with overlap
     ethr =  2.27E-09,  avg # of iterations =  5.0

     negative rho (up, down):  2.545E-07 0.000E+00

     total cpu time spent up to now is     6028.7 secs

     total energy              =   -2938.08679175 Ry
     estimated scf accuracy    <       0.00002190 Ry

     iteration #  2     ecut=    60.00 Ry     beta= 0.30
     Davidson diagonalization with overlap
     ethr =  3.59E-09,  avg # of iterations =  2.0

     negative rho (up, down):  2.585E-07 0.000E+00

     total cpu time spent up to now is     6092.0 secs

     total energy              =   -2938.08679144 Ry
     estimated scf accuracy    <       0.00000795 Ry

     iteration #  3     ecut=    60.00 Ry     beta= 0.30
     Davidson diagonalization with overlap
     ethr =  1.30E-09,  avg # of iterations =  4.0

     negative rho (up, down):  2.596E-07 0.000E+00

     total cpu time spent up to now is     6167.1 secs

     total energy              =   -2938.08679249 Ry
     estimated scf accuracy    <       0.00000103 Ry

     iteration #  4     ecut=    60.00 Ry     beta= 0.30
     Davidson diagonalization with overlap
     ethr =  1.69E-10,  avg # of iterations =  5.0

     negative rho (up, down):  2.599E-07 0.000E+00

     total cpu time spent up to now is     6248.8 secs

     total energy              =   -2938.08679271 Ry
     estimated scf accuracy    <       0.00000066 Ry

     iteration #  5     ecut=    60.00 Ry     beta= 0.30
     Davidson diagonalization with overlap
     ethr =  1.09E-10,  avg # of iterations =  5.0

     negative rho (up, down):  2.602E-07 0.000E+00

     total cpu time spent up to now is     6320.3 secs

     total energy              =   -2938.08679281 Ry
     estimated scf accuracy    <       0.00000006 Ry

     iteration #  6     ecut=    60.00 Ry     beta= 0.30
     Davidson diagonalization with overlap
     ethr =  1.02E-11,  avg # of iterations =  6.0

     negative rho (up, down):  2.604E-07 0.000E+00

     total cpu time spent up to now is     6398.0 secs

     total energy              =   -2938.08679282 Ry
     estimated scf accuracy    <       0.00000002 Ry

     iteration #  7     ecut=    60.00 Ry     beta= 0.30
     Davidson diagonalization with overlap
     ethr =  2.85E-12,  avg # of iterations =  7.5

     negative rho (up, down):  2.605E-07 0.000E+00

     total cpu time spent up to now is     6478.3 secs

     total energy              =   -2938.08679283 Ry
     estimated scf accuracy    <          2.2E-09 Ry

     iteration #  8     ecut=    60.00 Ry     beta= 0.30
     Davidson diagonalization with overlap
     ethr =  3.60E-13,  avg # of iterations =  8.5

     negative rho (up, down):  2.604E-07 0.000E+00

     total cpu time spent up to now is     6570.2 secs

     End of self-consistent calculation

          k = 0.0000 0.0000 0.0000 (154911 PWs)   bands (ev):

   -25.0776 -24.1319 -22.3626 -22.3626 -22.2213 -22.2212 -22.2211 -22.2211
   -20.4233 -20.4229 -20.4079 -20.4076 -20.4073 -20.4071 -19.9437 -19.9433
   -19.9274 -19.9273 -19.9272 -19.9271 -18.6536 -18.6526 -18.6521 -18.6512
   -18.6490 -18.6478 -18.0734 -18.0722 -18.0719 -18.0708 -18.0688 -18.0674
   -17.0340 -17.0253 -17.0250 -16.3897 -16.3683 -16.3680 -15.3516 -15.3516
   -15.3421 -15.2885 -15.2884 -15.2792 -14.7211 -14.7148 -14.7114 -14.7114
   -14.7105 -14.7061 -14.6141 -14.5593 -14.5589 -14.4437 -14.4347 -14.4344
   -14.2044 -14.2041 -14.1939 -13.0493 -12.9751 -12.9748 -12.6748 -12.6726
   -12.6660 -12.6601 -12.6584 -12.6536 -11.6243 -11.6231 -11.6163 -11.5941
   -11.5931 -11.5867 -11.5641 -11.5605 -11.5496 -11.1908 -11.1906 -11.1596
   -10.7234 -10.7211 -10.7146 -10.7088 -10.6975 -10.6945 -10.6823 -10.5967
   -10.5964 -10.2811 -10.2809 -10.2391  -9.8426  -9.7399  -9.6854  -9.6816
    -9.6760  -9.6406  -9.6369  -9.6315  -9.4640  -9.4638  -9.3782  -8.8777
    -8.8775  -8.7254  -8.6986  -8.6916  -8.6820  -8.6801  -8.6659  -8.6639
    -8.6498  -8.6492  -8.5057  -8.5054  -8.4154  -8.3654  -8.3626  -8.3404
    -8.3014  -8.2895  -8.2866  -8.0070  -8.0069  -7.8122  -7.6895  -7.6827
    -7.6825  -7.6077  -7.6074  -7.5357  -7.4518  -7.4516  -7.4032  -7.3505
    -7.3468  -7.3457  -7.3199  -7.3195  -7.2317  -7.2237  -7.2233  -7.2179
    -7.1669  -7.1669  -7.0729  -7.0690  -7.0619  -7.0613  -6.9938  -6.9937
    -6.9002  -6.8971  -6.8946  -6.8347  -6.8328  -6.6947  -6.6390  -6.5855
    -6.5852  -6.5333  -6.5140  -6.5106  -6.5043  -6.4883  -6.4864  -6.4554
    -6.4531  -6.4332  -6.4109  -6.3095  -6.2834  -6.1827  -6.1820  -6.1707
    -6.1689  -6.0948  -6.0929  -6.0631  -6.0516  -6.0514  -6.0361  -5.9929
    -5.9924  -5.9530  -5.9289  -5.9259  -5.9061  -5.6447  -5.6312  -5.6246
    -5.6221  -5.6172  -5.6143  -5.5147  -5.5142  -5.4115  -5.3894  -5.3888
    -5.3880  -5.3211  -5.3210  -5.2847  -5.2539  -5.2289  -5.2267  -5.2111
    -5.2036  -5.2018  -5.1120  -5.1107  -5.0948  -5.0722  -5.0692  -5.0255
    -5.0224  -5.0185  -4.9048  -4.9044  -4.8905  -4.7533  -4.7530  -4.6474
    -4.4362  -4.4351  -4.3732  -4.3711  -4.3509  -4.3397  -4.2839  -4.2706
    -4.2692  -4.2020  -4.2014  -4.1605  -4.1322  -4.1286  -4.1218  -4.1127
    -4.0863  -4.0808  -3.9550  -3.9520  -3.9384  -3.9263  -3.8778  -3.8739
    -3.8256  -3.8226  -3.7704  -3.7663  -3.7237  -3.7205  -3.7198  -3.6088
    -3.5884  -3.5871  -3.3805  -3.3802  -3.3688  -3.3686  -3.3435  -3.0802
    -3.0801  -3.0276  -3.0083  -2.9862  -2.9862  -2.7721  -2.7710  -2.6968
    -2.6959  -2.5574  -2.5536  -2.4623  -2.4622  -2.4556  -2.4555  -2.3881
    -2.3811  -2.1308  -2.1305  -2.1190  -2.1187  -2.0930  -2.0839  -1.9137
    -1.9136  -1.8866  -1.8865  -1.7370  -1.7364  -1.5239  -1.5236  -1.4539
    -1.2984  -1.2958  -1.2930  -1.2571  -1.2563  -1.2530  -0.6199  -0.6196
    -0.5430

          k = 0.0000 0.0000-1.5660 (154844 PWs)   bands (ev):

   -25.0775 -24.1321 -22.3033 -22.3032 -22.3031 -22.3031 -22.1904 -22.1903
   -20.4556 -20.4553 -20.4553 -20.4550 -20.3937 -20.3933 -19.9218 -19.9216
   -19.9214 -19.9212 -19.8989 -19.8987 -18.6173 -18.6161 -18.6146 -18.6135
   -18.6121 -18.6109 -18.1248 -18.1235 -18.1213 -18.1200 -18.1191 -18.1178
   -17.0152 -17.0150 -17.0145 -16.3778 -16.3775 -16.3751 -15.3468 -15.3468
   -15.3373 -15.2838 -15.2837 -15.2745 -14.7107 -14.7104 -14.7074 -14.7074
   -14.7054 -14.7023 -14.5747 -14.5744 -14.5603 -14.4863 -14.4860 -14.4810
   -14.1963 -14.1960 -14.1892 -13.0130 -13.0127 -12.9840 -12.6825 -12.6777
   -12.6744 -12.6694 -12.6641 -12.6609 -11.6093 -11.6089 -11.5648 -11.5482
   -11.5465 -11.5397 -11.4932 -11.4895 -11.4833 -11.1468 -11.1465 -11.0857
   -10.7552 -10.7536 -10.7489 -10.7296 -10.7274 -10.7228 -10.6079 -10.6076
   -10.5393 -10.2847 -10.2845 -10.2507  -9.8271  -9.6982  -9.6953  -9.6852
    -9.6589  -9.6585  -9.6447  -9.6445  -9.6393  -9.4897  -9.2001  -9.1999
    -8.8267  -8.7707  -8.7697  -8.7676  -8.7664  -8.7464  -8.7327  -8.7272
    -8.6491  -8.6485  -8.4395  -8.3438  -8.3436  -8.1410  -8.1382  -8.1249
    -8.0607  -8.0586  -8.0520  -7.9489  -7.8968  -7.8966  -7.8371  -7.8368
    -7.7724  -7.5904  -7.5062  -7.5058  -7.4470  -7.4465  -7.4454  -7.4092
    -7.3921  -7.3902  -7.3205  -7.3097  -7.2713  -7.2712  -7.2569  -7.1926
    -7.1902  -7.1724  -7.1527  -7.1494  -7.1111  -7.1089  -6.9374  -6.9085
    -6.8578  -6.8574  -6.7599  -6.7577  -6.7236  -6.6366  -6.6345  -6.6293
    -6.5729  -6.5725  -6.5475  -6.5023  -6.4767  -6.4762  -6.4472  -6.4448
    -6.3958  -6.3952  -6.3816  -6.3594  -6.3102  -6.3092  -6.2785  -6.2785
    -6.2601  -6.2598  -6.2288  -6.1822  -6.1744  -6.1739  -6.1027  -6.0885
    -6.0850  -6.0837  -6.0812  -6.0686  -6.0411  -6.0110  -5.9836  -5.9795
    -5.8667  -5.8325  -5.8273  -5.5507  -5.5504  -5.5303  -5.4835  -5.4049
    -5.4042  -5.3737  -5.3725  -5.3116  -5.2912  -5.2901  -5.2851  -5.2376
    -5.2003  -5.1995  -5.1158  -5.1148  -5.0628  -5.0611  -5.0569  -5.0129
    -5.0112  -5.0064  -4.7228  -4.7225  -4.7154  -4.6772  -4.6770  -4.5951
    -4.5057  -4.4098  -4.3846  -4.3838  -4.3622  -4.3619  -4.2617  -4.2616
    -4.2592  -4.1257  -4.1228  -4.1141  -4.0961  -4.0928  -4.0727  -4.0583
    -4.0560  -4.0550  -3.9616  -3.9278  -3.9241  -3.8897  -3.8871  -3.8122
    -3.8041  -3.6745  -3.5921  -3.5593  -3.5588  -3.4177  -3.4160  -3.4080
    -3.3996  -3.3974  -3.3885  -3.3560  -3.3555  -3.2794  -3.2792  -3.0127
    -2.9301  -2.9199  -2.9199  -2.8957  -2.8957  -2.8096  -2.7614  -2.7613
    -2.7234  -2.7231  -2.7101  -2.4393  -2.4349  -2.3970  -2.3969  -2.3900
    -2.3899  -2.1975  -2.1622  -2.1618  -2.1212  -2.0757  -2.0754  -1.9292
    -1.9290  -1.9146  -1.9145  -1.9084  -1.8754  -1.5093  -1.5090  -1.4512
    -1.2924  -1.2904  -1.2823  -1.2578  -1.2561  -1.2509  -0.5992  -0.5809
    -0.5806

     highest occupied level (ev):    -0.5430

!    total energy              =   -2938.08679285 Ry
     estimated scf accuracy    <          5.2E-10 Ry

     The total energy is the sum of the following terms:
     one-electron contribution =   -5752.36178398 Ry
     hartree contribution      =    3071.57896936 Ry
     xc contribution           =    -693.83392953 Ry
     ewald contribution        =    1356.42517261 Ry
     one-center paw contrib.   =    -919.89522131 Ry

     convergence has been achieved in   8 iterations

     negative rho (up, down):  2.604E-07 0.000E+00

     Forces acting on atoms (cartesian axes, Ry/au):

     atom    1 type  1   force =     0.00030004    0.00013438    0.00026600
     atom    2 type  1   force =    -0.00026731    0.00018305    0.00026937
     atom    3 type  1   force =    -0.00002346   -0.00033443    0.00026871
     atom    4 type  1   force =     0.00029218   -0.00013997   -0.00026937
     atom    5 type  1   force =    -0.00003364    0.00032703   -0.00026600
     atom    6 type  1   force =    -0.00027790   -0.00018753   -0.00026871
     atom    7 type  2   force =    -0.00001517    0.00022449    0.00032294
     atom    8 type  2   force =    -0.00018908   -0.00012314    0.00032375
     atom    9 type  2   force =     0.00020218   -0.00009880    0.00032302
     atom   10 type  2   force =    -0.00001210   -0.00022532   -0.00032375
     atom   11 type  2   force =     0.00020200    0.00009911   -0.00032294
     atom   12 type  2   force =    -0.00018665    0.00012569   -0.00032302
     atom   13 type  2   force =    -0.00023495    0.00060457    0.00014247
     atom   14 type  2   force =    -0.00040649   -0.00050375    0.00014152
     atom   15 type  2   force =     0.00063677   -0.00009617    0.00014094
     atom   16 type  2   force =    -0.00023302   -0.00060390   -0.00014152
     atom   17 type  2   force =     0.00064105    0.00009882   -0.00014247
     atom   18 type  2   force =    -0.00040167    0.00050338   -0.00014094
     atom   19 type  2   force =    -0.00023902   -0.00002198   -0.00052240
     atom   20 type  2   force =     0.00013801   -0.00019498   -0.00052302
     atom   21 type  2   force =     0.00009690    0.00021632   -0.00051753
     atom   22 type  2   force =    -0.00023787    0.00002203    0.00052302
     atom   23 type  2   force =     0.00010048   -0.00021799    0.00052240
     atom   24 type  2   force =     0.00013889    0.00019207    0.00051753
     atom   25 type  3   force =     0.00035576   -0.00008399    0.00041959
     atom   26 type  3   force =    -0.00010492    0.00035036    0.00042003
     atom   27 type  3   force =    -0.00024999   -0.00026535    0.00042187
     atom   28 type  3   force =     0.00035588    0.00008432   -0.00042003
     atom   29 type  3   force =    -0.00025062    0.00026610   -0.00041959
     atom   30 type  3   force =    -0.00010481   -0.00034918   -0.00042187
     atom   31 type  3   force =    -0.00009114   -0.00014322   -0.00016065
     atom   32 type  3   force =     0.00016900   -0.00000861   -0.00016110
     atom   33 type  3   force =    -0.00007781    0.00015267   -0.00016160
     atom   34 type  3   force =    -0.00009195    0.00014205    0.00016110
     atom   35 type  3   force =    -0.00007846   -0.00015054    0.00016065
     atom   36 type  3   force =     0.00017112    0.00000895    0.00016160
     atom   37 type  3   force =    -0.00022754    0.00014885   -0.00066021
     atom   38 type  3   force =    -0.00001592   -0.00027221   -0.00065920
     atom   39 type  3   force =     0.00024356    0.00012310   -0.00066154
     atom   40 type  3   force =    -0.00022778   -0.00014989    0.00065920
     atom   41 type  3   force =     0.00024268   -0.00012263    0.00066021
     atom   42 type  3   force =    -0.00001518    0.00027248    0.00066154
     atom   43 type  3   force =    -0.00014010    0.00013574    0.00019443
     atom   44 type  3   force =    -0.00004564   -0.00018804    0.00019535
     atom   45 type  3   force =     0.00018585    0.00005445    0.00019129
     atom   46 type  3   force =    -0.00014003   -0.00013355   -0.00019535
     atom   47 type  3   force =     0.00018761   -0.00005346   -0.00019443
     atom   48 type  3   force =    -0.00004577    0.00018818   -0.00019129
     atom   49 type  3   force =     0.00034798   -0.00013582    0.00022393
     atom   50 type  3   force =    -0.00004001    0.00035169    0.00022455
     atom   51 type  3   force =    -0.00028099   -0.00019654    0.00021837
     atom   52 type  3   force =     0.00032457    0.00014119   -0.00022455
     atom   53 type  3   force =    -0.00029161    0.00023345   -0.00022393
     atom   54 type  3   force =    -0.00002971   -0.00034161   -0.00021837
     atom   55 type  3   force =     0.00013989   -0.00008809    0.00100370
     atom   56 type  3   force =     0.00002518    0.00015495    0.00099879
     atom   57 type  3   force =    -0.00015075   -0.00005252    0.00099741
     atom   58 type  3   force =     0.00012160    0.00009928   -0.00099879
     atom   59 type  3   force =    -0.00014623    0.00007710   -0.00100370
     atom   60 type  3   force =     0.00002989   -0.00015681   -0.00099741
     atom   61 type  3   force =    -0.00019677   -0.00000127   -0.00096432
     atom   62 type  3   force =     0.00011610   -0.00017909   -0.00096375
     atom   63 type  3   force =     0.00009825    0.00018298   -0.00095590
     atom   64 type  3   force =    -0.00021315    0.00001100    0.00096375
     atom   65 type  3   force =     0.00009729   -0.00017104    0.00096432
     atom   66 type  3   force =     0.00010934    0.00017658    0.00095590
     atom   67 type  3   force =     0.00012584    0.00009823   -0.00081171
     atom   68 type  3   force =    -0.00012849    0.00006055   -0.00081805
     atom   69 type  3   force =     0.00001289   -0.00014394   -0.00081671
     atom   70 type  3   force =     0.00011668   -0.00008100    0.00081805
     atom   71 type  3   force =     0.00002215    0.00015810    0.00081171
     atom   72 type  3   force =    -0.00013110   -0.00006081    0.00081671
     atom   73 type  3   force =     0.00039775    0.00022378    0.00071872
     atom   74 type  3   force =    -0.00037511    0.00022814    0.00071673
     atom   75 type  3   force =    -0.00001310   -0.00043482    0.00072067
     atom   76 type  3   force =     0.00038513   -0.00021078   -0.00071673
     atom   77 type  3   force =    -0.00000507    0.00045635   -0.00071872
     atom   78 type  3   force =    -0.00037002   -0.00022875   -0.00072067
     atom   79 type  3   force =     0.00041175    0.00030998    0.00007794
     atom   80 type  3   force =    -0.00042373    0.00018636    0.00006727
     atom   81 type  3   force =     0.00004931   -0.00045765    0.00007005
     atom   82 type  3   force =     0.00037326   -0.00027378   -0.00006727
     atom   83 type  3   force =     0.00006257    0.00051158   -0.00007794
     atom   84 type  3   force =    -0.00042099   -0.00018612   -0.00007005
     atom   85 type  3   force =     0.00001031    0.00018189    0.00003798
     atom   86 type  3   force =    -0.00017105   -0.00009818    0.00007385
     atom   87 type  3   force =     0.00014793   -0.00008878    0.00006670
     atom   88 type  3   force =     0.00000049   -0.00019722   -0.00007385
     atom   89 type  3   force =     0.00015237    0.00009987   -0.00003798
     atom   90 type  3   force =    -0.00015085    0.00008372   -0.00006670
     atom   91 type  3   force =     0.00022548    0.00013629   -0.00019714
     atom   92 type  3   force =    -0.00021001    0.00010948   -0.00019926
     atom   93 type  3   force =    -0.00000035   -0.00024750   -0.00020356
     atom   94 type  3   force =     0.00019981   -0.00012713    0.00019926
     atom   95 type  3   force =     0.00000530    0.00026342    0.00019714
     atom   96 type  3   force =    -0.00021416   -0.00012405    0.00020356
     atom   97 type  3   force =    -0.00022904   -0.00022645   -0.00038191
     atom   98 type  3   force =     0.00033095   -0.00007804   -0.00039544
     atom   99 type  3   force =    -0.00008644    0.00033076   -0.00039844
     atom  100 type  3   force =    -0.00023305    0.00024759    0.00039544
     atom  101 type  3   force =    -0.00008159   -0.00031158    0.00038191
     atom  102 type  3   force =     0.00032967    0.00009052    0.00039844
     atom  103 type  3   force =    -0.00002959    0.00018824    0.00004764
     atom  104 type  3   force =    -0.00013170   -0.00013317    0.00004875
     atom  105 type  3   force =     0.00018140   -0.00005021    0.00004380
     atom  106 type  3   force =    -0.00004948   -0.00018064   -0.00004875
     atom  107 type  3   force =     0.00017782    0.00006849   -0.00004764
     atom  108 type  3   force =    -0.00013418    0.00013200   -0.00004380
     atom  109 type  3   force =    -0.00005803   -0.00006630    0.00050434
     atom  110 type  3   force =     0.00009968   -0.00002179    0.00050681
     atom  111 type  3   force =    -0.00002869    0.00009708    0.00050065
     atom  112 type  3   force =    -0.00006871    0.00007543   -0.00050681
     atom  113 type  3   force =    -0.00002840   -0.00008341   -0.00050434
     atom  114 type  3   force =     0.00009841    0.00002369   -0.00050065
     atom  115 type  3   force =     0.00005079   -0.00004041   -0.00024440
     atom  116 type  3   force =     0.00000921    0.00005808   -0.00023972
     atom  117 type  3   force =    -0.00005705   -0.00002315   -0.00024390
     atom  118 type  3   force =     0.00004570    0.00003702    0.00023972
     atom  119 type  3   force =    -0.00006039    0.00002378    0.00024440
     atom  120 type  3   force =     0.00000848   -0.00006098    0.00024390
     atom  121 type  3   force =    -0.00006764   -0.00016141    0.00001357
     atom  122 type  3   force =     0.00017634    0.00002395    0.00001500
     atom  123 type  3   force =    -0.00010690    0.00013995    0.00001041
     atom  124 type  3   force =    -0.00006743    0.00016469   -0.00001500
     atom  125 type  3   force =    -0.00010596   -0.00013928   -0.00001357
     atom  126 type  3   force =     0.00017465   -0.00002260   -0.00001041
     atom  127 type  4   force =     0.00007642    0.00003414   -0.00007236
     atom  128 type  4   force =    -0.00006614    0.00004808   -0.00007236
     atom  129 type  4   force =    -0.00000942   -0.00008342   -0.00007465
     atom  130 type  4   force =     0.00007471   -0.00003324    0.00007236
     atom  131 type  4   force =    -0.00000865    0.00008325    0.00007236
     atom  132 type  4   force =    -0.00006754   -0.00004987    0.00007465
     atom  133 type  4   force =     0.00038507   -0.00009403   -0.00004549
     atom  134 type  4   force =    -0.00010912    0.00037701   -0.00004723
     atom  135 type  4   force =    -0.00027764   -0.00028487   -0.00004236
     atom  136 type  4   force =     0.00038106    0.00009401    0.00004723
     atom  137 type  4   force =    -0.00027397    0.00028647    0.00004549
     atom  138 type  4   force =    -0.00010788   -0.00038288    0.00004236
     atom  139 type  4   force =    -0.00035956    0.00031030    0.00037202
     atom  140 type  4   force =    -0.00008661   -0.00046577    0.00037158
     atom  141 type  4   force =     0.00044761    0.00015656    0.00036705
     atom  142 type  4   force =    -0.00036006   -0.00030790   -0.00037158
     atom  143 type  4   force =     0.00044851   -0.00015624   -0.00037202
     atom  144 type  4   force =    -0.00008822    0.00046593   -0.00036705
     atom  145 type  4   force =     0.00030826   -0.00012805   -0.00020028
     atom  146 type  4   force =    -0.00004346    0.00033006   -0.00020027
     atom  147 type  4   force =    -0.00026406   -0.00020128   -0.00019726
     atom  148 type  4   force =     0.00030757    0.00012739    0.00020027
     atom  149 type  4   force =    -0.00026502    0.00020294    0.00020028
     atom  150 type  4   force =    -0.00004228   -0.00032932    0.00019726
     atom  151 type  4   force =    -0.00005325    0.00069239   -0.00013487
     atom  152 type  4   force =    -0.00057075   -0.00039186   -0.00013492
     atom  153 type  4   force =     0.00062660   -0.00030053   -0.00013769
     atom  154 type  4   force =    -0.00005399   -0.00069022    0.00013492
     atom  155 type  4   force =     0.00062625    0.00030008    0.00013487
     atom  156 type  4   force =    -0.00057357    0.00039238    0.00013769
     atom  157 type  4   force =    -0.00029836   -0.00048596    0.00002935
     atom  158 type  4   force =     0.00056840   -0.00001808    0.00002836
     atom  159 type  4   force =    -0.00027226    0.00050385    0.00003108
     atom  160 type  4   force =    -0.00029986    0.00048321   -0.00002836
     atom  161 type  4   force =    -0.00027167   -0.00050136   -0.00002935
     atom  162 type  4   force =     0.00057247    0.00001614   -0.00003108
     atom  163 type  4   force =     0.00000731   -0.00001292   -0.00000148
     atom  164 type  4   force =     0.00000884    0.00001256   -0.00000187
     atom  165 type  4   force =    -0.00001494   -0.00000453   -0.00000555
     atom  166 type  4   force =     0.00000646    0.00001394    0.00000187
     atom  167 type  4   force =    -0.00001484   -0.00000012    0.00000148
     atom  168 type  4   force =     0.00000355   -0.00001521    0.00000555
     atom  169 type  4   force =     0.00018558    0.00007741    0.00017202
     atom  170 type  4   force =    -0.00014448    0.00011156    0.00017365
     atom  171 type  4   force =    -0.00002475   -0.00017589    0.00017124
     atom  172 type  4   force =     0.00016885   -0.00006935   -0.00017365
     atom  173 type  4   force =    -0.00002575    0.00019942   -0.00017202
     atom  174 type  4   force =    -0.00013995   -0.00010938   -0.00017124
     atom  175 type  4   force =     0.00010415   -0.00011108   -0.00026781
     atom  176 type  4   force =     0.00005193    0.00014152   -0.00026517
     atom  177 type  4   force =    -0.00015405   -0.00000926   -0.00025338
     atom  178 type  4   force =     0.00009659    0.00011573    0.00026517
     atom  179 type  4   force =    -0.00014827    0.00003466    0.00026781
     atom  180 type  4   force =     0.00006900   -0.00013804    0.00025338
     atom  181 type  4   force =    -0.00011058    0.00000745   -0.00031266
     atom  182 type  4   force =     0.00005212   -0.00011314   -0.00030481
     atom  183 type  4   force =     0.00005895    0.00010299   -0.00030973
     atom  184 type  4   force =    -0.00012405   -0.00001144    0.00030481
     atom  185 type  4   force =     0.00006175   -0.00009204    0.00031266
     atom  186 type  4   force =     0.00005971    0.00010255    0.00030973
     atom  187 type  4   force =     0.00016820    0.00015590    0.00012844
     atom  188 type  4   force =    -0.00020066    0.00006458    0.00011412
     atom  189 type  4   force =     0.00004358   -0.00020672    0.00012571
     atom  190 type  4   force =     0.00015626   -0.00014149   -0.00011412
     atom  191 type  4   force =     0.00005091    0.00022361   -0.00012844
     atom  192 type  4   force =    -0.00020082   -0.00006562   -0.00012571
     atom  193 type  4   force =     0.00010525    0.00015259    0.00004712
     atom  194 type  4   force =    -0.00020794    0.00002225    0.00006906
     atom  195 type  4   force =     0.00006265   -0.00015350    0.00005446
     atom  196 type  4   force =     0.00012324   -0.00016896   -0.00006906
     atom  197 type  4   force =     0.00007953    0.00016744   -0.00004712
     atom  198 type  4   force =    -0.00016426   -0.00002250   -0.00005446
     atom  199 type  4   force =    -0.00000056    0.00011076   -0.00000337
     atom  200 type  4   force =    -0.00007718   -0.00006594   -0.00000084
     atom  201 type  4   force =     0.00009691   -0.00003436   -0.00000173
     atom  202 type  4   force =    -0.00001851   -0.00009981    0.00000084
     atom  203 type  4   force =     0.00009620    0.00005490    0.00000337
     atom  204 type  4   force =    -0.00007821    0.00006675    0.00000173
     atom  205 type  5   force =     0.00026121    0.00018044   -0.00009787
     atom  206 type  5   force =    -0.00026947    0.00012281   -0.00009908
     atom  207 type  5   force =     0.00002850   -0.00028583   -0.00010009
     atom  208 type  5   force =     0.00024109   -0.00017196    0.00009908
     atom  209 type  5   force =     0.00002566    0.00031643    0.00009787
     atom  210 type  5   force =    -0.00026179   -0.00011823    0.00010009
     atom  211 type  5   force =    -0.00008541   -0.00013664   -0.00005795
     atom  212 type  5   force =     0.00017374   -0.00001369   -0.00005003
     atom  213 type  5   force =    -0.00007426    0.00015373   -0.00005442
     atom  214 type  5   force =    -0.00009872    0.00014362    0.00005003
     atom  215 type  5   force =    -0.00007563   -0.00014229    0.00005795
     atom  216 type  5   force =     0.00017026    0.00001255    0.00005442
     atom  217 type  4   force =    -0.00010241   -0.00017737    0.00000000
     atom  218 type  2   force =    -0.00011940   -0.00016056    0.00003669
     atom  219 type  2   force =    -0.00007935   -0.00018368   -0.00003669

     Total force =     0.007225     Total SCF correction =     0.000029
     Energy error            =      6.0E-05 Ry
     Gradient error          =      1.0E-03 Ry/Bohr

     number of scf cycles    =   8
     number of bfgs steps    =   7

     energy             old  =   -2938.0867324960 Ry
     energy             new  =   -2938.0867928450 Ry

     CASE: energy            _new < energy            _old

     new trust radius        =       0.0035572715 bohr
     new conv_thr            =       0.0000000010 Ry


ATOMIC_POSITIONS (angstrom)
Mg              10.2294178515        5.4276059741        5.8276620041
Mg              12.1384734219        6.1452026562        1.1548061643
Mg              10.5625216503        7.4397715808        3.4912672283
Mg              -0.7473350993       13.5848276745        5.8544538357
Mg              -0.4142642704       11.5727387123        1.1815979959
Mg               1.1617703622       12.8672978676        3.5179927717
O               11.4492546159        4.4588483454        0.1789466797
O               12.3675919842        7.6858648396        2.5153772698
O                9.1136905939        6.8676647660        4.8517851956
O                0.4723582091       14.5535812618        4.4938827302
O               -1.8631513692       12.1447695244        6.8303133203
O                1.3907268551       11.3265199595        2.1574748044
O               10.8150313376        5.4812830252        2.6540813690
O               11.7992537436        6.6254017731        4.9904772226
O               10.3162601901        6.9057030361        0.3176412835
O               -0.1618606260       13.5311543742        2.0187827774
O               -0.6605853236       12.1067333936        4.3551786310
O                0.8223841653       12.3869949147        6.6916187165
O               10.2319591989        4.0562598392        4.2816542322
O               13.3248684229        6.8329984722        6.6180740602
O                9.3736493081        8.1230990807        1.9452397111
O               -0.7448839504       14.9561737924        0.3911859398
O               -1.6031555343       10.8892665163        2.7276057678
O                2.3479855074       12.1793679673        5.0640202889
H               10.5715841810        1.7584386505        3.7768044456
H               15.1450256613        8.2760436248        6.1132269397
H                7.2139037055        8.9779690069        1.4403797677
H               -0.4052488087       17.2539987760        0.8960330603
H               -3.7629395481       10.0344797843        3.2324555544
H                4.1681973816       10.7364083729        5.5688802323
H                0.8057527121       18.9795381460        0.0619119205
H               -5.8628037147       10.2204563224        2.3983258804
H                5.0570693296        8.8248848085        4.7347480235
H               11.7825766708        0.0328912069        4.6109341196
H               16.0338858305       10.1875713908        6.9473480795
H                5.1140397648        8.7919929123        2.2745119765
H               11.8773707675        2.2082691663        6.0411675704
H               14.1025540632        9.1819768238        1.3683266231
H                6.9505748915        7.6222040767        3.7047451523
H                0.9005481548       16.8041584888        5.6409333769
H               -4.0262681873       11.3902393980        0.9680924296
H                3.1257349176        9.8304764652        3.3045148477
H                2.7224365867       15.5479349480        1.4788249046
H               -3.8492987417       13.5961813539        3.8152513261
H                1.1268426804        8.8807639965        6.1516565288
H               13.6992878179        3.4645001799        3.1940086739
H               12.1036883480       10.1316667183        5.5304350954
H                7.1275458858        5.4162563855        0.8576034712
H                3.6211604752       14.1497180367        5.8986293079
H               -3.0877371409       15.0735149538        1.2258153694
H               -0.5333019265        8.8015583503        3.5621323400
H               14.5979154449        4.8626986727        5.7834446306
H               10.4434350386       10.2108759811        1.1106306921
H                7.8890240876        3.9389261590        3.4471276600
H                6.0021970117       13.6409911062        5.6280746723
H               -3.8376566264       17.3899744787        0.9552349766
H               -2.1644923505        6.9937989376        3.2916230236
H               16.9789879830        5.3714791099        6.0540250234
H                8.8123463250       12.0185506438        1.3811853277
H                7.1390537242        1.6223941070        3.7176369764
H                5.4013859138       14.9021544041        4.5360408450
H               -4.6296508999       16.2391526656        6.8724943994
H               -0.7718795856        6.8835320144        2.1995708218
H               16.3783441943        4.1101810429        0.1367656006
H               10.2049513282       12.1288146191        2.4732191550
H                6.3472533850        2.7732986774        4.8096891782
H                5.0332088597       16.4297866714        1.3715049669
H               -5.7683370607       15.1564240200        3.7079878679
H                0.7351157149        6.4386603739        6.0444224343
H               16.0100167622        2.5826855778        3.3012721321
H               11.7120082063       12.5737800707        5.6377550331
H                5.2084855927        3.8559590708        0.9648375657
H                5.5958744511       15.1459599722        2.4495297916
H               -4.9380432331       16.2856628106        4.7859915571
H               -0.6579855490        6.5931111992        0.1130902171
H               16.5728193279        3.8663605204        2.2232684429
H               10.3188488751       12.4191494171        4.5597302084
H                6.0387945630        2.7267233988        6.8961697829
H                7.2675239882       14.4005598058        0.8065455864
H               -5.1281458123       18.1060520824        3.1431179411
H               -2.1394139711        5.5185249548        5.4794009874
H               18.2443739718        4.6119214934        3.8661420589
H                8.8374886264       13.4941402993        6.2027144136
H                5.8488897878        0.9064756292        1.5298590126
H                7.4997052899       16.1214437142        1.1046364890
H               -6.7336742935       17.4461261023        3.4422986643
H               -0.7652712605        4.4578341516        5.7787315404
H               18.4756255490        2.8915300521        3.5669613357
H               10.2117271573       14.5556571590        5.9046235110
H                4.2432332514        1.5661727233        1.2305284596
H                6.2540217000       16.6753119431        6.0200939288
H               -6.5911557649       16.0908644885        1.3467886976
H                0.3374113896        5.2591955702        3.6833980374
H               17.2306752983        2.3373239114        5.6624713024
H               11.3142329088       13.7537976396        0.9891660712
H                4.3858912726        2.9218046199        3.3258619626
H                7.5695940534       15.5579784415        5.6363272758
H               -6.2811688869       17.7884292592        0.9627624886
H               -1.2882517929        4.6789880008        3.2991160089
H               18.5458160754        3.4545628079        6.0464975114
H                9.6888075352       14.3344499673        1.3729327242
H                4.6962483692        1.2238352213        3.7101439911
H                2.3369761401       13.9803550769        0.7865546693
H               -2.2990184455       14.0461885298        3.1229689140
H               -0.0379875581        9.9983834068        5.4593762536
H               13.3138653158        5.0320858873        3.8862910860
H               10.9388545805        9.0140582438        6.2227053307
H                8.6778478060        4.9662935130        1.5498837464
H                4.8345937378       13.4136424598        0.8717858800
H               -3.0570132430       16.4925133540        3.2082119038
H               -1.7775909506        8.1187675272        5.5445905034
H               15.8114421583        5.5988055489        3.8010480962
H                9.1992582586       10.8937022238        6.1374741200
H                7.9198544013        2.5199448429        1.4646694966
H                3.6975380455       13.1536551151        2.8531048624
H               -2.2632746686       15.6377518546        5.1895600032
H               -1.4342150989        9.2334701581        0.5166878179
H               14.6743276985        5.8588225685        1.8196999968
H                9.5426304596        9.7789894364        4.1561551376
H                8.7135272715        3.3746683689        6.4925721821
H                3.2884096385       14.6032115978        3.4773532533
H               -3.3141171523       14.5586486565        5.8138082227
H                0.0257433880        8.8630041141        1.1409131007
H               14.2652181574        4.4092146833        1.1954517773
H               11.0025474014       10.1494520838        3.5319067467
H                7.6627150227        4.4537964850        5.8683468993
C               11.3179136365        3.2783002488        0.8021398819
C               13.4556350669        8.1624241254        3.1385570776
C                8.1569686952        7.5716911897        5.4749812954
C                0.3410491157       15.7341338547        3.8707029224
C               -2.8198655215       11.4407508514        6.2071201181
C                2.4787925724       10.8499877028        1.5342787046
C               10.9483826061        3.1271838599        2.1852812893
C               13.7712700402        7.9179693477        4.5216997280
C                8.2108638608        7.9672651229        6.8581180981
C               -0.0284724186       15.8852543710        2.4875602720
C               -2.7659706381       11.0451693971        4.8239787107
C                2.7944220647       11.0944492518        0.1511419019
C               10.8727550474        1.8302487527        2.7395716545
C               14.9322536504        8.5009508542        5.0759919872
C                7.1254987302        8.6812250748        0.4031557139
C               -0.1040874291       17.1821864241        1.9332680128
C               -3.8513356086       10.3312064565        4.2696883455
C                3.9554120857       10.5114754523        6.6061042861
C               11.1651420455        0.6706095558        2.0160211949
C               15.7903327161        9.3339853910        4.3524364298
C                5.9750314885        9.0078307030        6.6888610196
C                0.1883021091       18.3418219618        2.6568235702
C               -5.0018061113       10.0046014262        4.9932388051
C                4.8134944776        9.6784444089        0.3203989804
C               11.5168016054        0.8355410287        0.6537139906
C               15.4716679016        9.5560586589        2.9901280584
C                5.9420461328        8.6208318391        5.3265544931
C                0.5399556079       18.1768867711        4.0191319416
C               -5.0348010460       10.3916132750        6.3555460094
C                4.4948363080        9.4563788210        1.6827055069
C               11.5785501321        2.0917856056        0.0674180446
C               14.3528546483        8.9814131737        2.4038296116
C                6.9991070449        7.9392259543        4.7402575685
C                0.6017046462       16.9206433290        4.6054303884
C               -3.9777355923       11.0732113562        6.9418419554
C                3.3760178404       10.0310174819        2.2690024315
C               10.6492459491        4.2768659274        3.0908103942
C               12.9251863812        7.0840664749        5.4272236599
C                9.3560709114        7.6514764820        0.7543906795
C               -0.3276116613       14.7355729922        1.5820363401
C               -1.6207484328       11.3609504868        3.9184496058
C                1.9483375542       11.9283333298        6.2548693205
C                4.4473318066       14.4481597312        0.7480925193
C               -3.7592244954       15.6398279938        3.0845103371
C               -0.6880433052        7.9369327824        5.4209395298
C               15.4241006011        4.5643300854        3.9247496629
C               10.2888074619       11.0755821892        6.2611674807
C                7.2176070703        3.3726034100        1.5883204702
C                5.5906000209       14.6687336789        5.5857953951
C               -4.5218506868       16.5196004875        0.9129709533
C               -1.0686172807        6.8366367578        3.2493135632
C               16.5673190260        4.3437626768        6.0962890467
C                9.9081959969       12.1759684799        1.4234646049
C                6.4550097490        2.4928686668        3.7599464368
C                6.6188653008       15.6530430029        6.1702029655
C               -5.8883897343       16.9179969165        1.4972195717
C               -0.7303701127        5.4540699231        3.8338176762
C               17.5956099780        3.3595033609        5.5120404283
C               10.2465002367       13.5586269961        0.8390570345
C                5.0885481638        2.0945158898        3.1754423238
C                5.4554433485       15.4174238234        1.3992457940
C               -5.1026078196       16.0281657632        3.7357557544
C               -0.3526986162        6.5793646294        6.0721035781
C               16.4321026368        3.5950948843        3.2735042456
C               10.6241590178       12.4332644404        5.6100142060
C                5.8742462179        2.9842363532        0.9371564219
C                6.8123504484       15.3894938616        0.6679941852
C               -5.7565323688       17.2171589556        3.0042506702
C               -1.0554015083        5.4183475094        5.3408734738
C               17.7887632209        3.6232762087        4.0050093298
C                9.9215174113       13.5944154785        6.3412658148
C                5.2201273438        1.7951692373        1.6683865262
C                3.0581024002       14.5105445962        1.4078843350
C               -3.1187035877       14.4055578889        3.7443511888
C                0.0606114390        9.1087977301        6.0807148229
C               14.0349308813        4.5019024107        3.2649088112
C               11.0374490430        9.9036666640        5.6013756650
C                7.8581445128        4.6068899110        0.9285451771
N                4.3069505742       14.7777086649        6.3191837176
N               -3.9744654151       15.3534748367        1.6463620401
N               -0.3324353702        7.8936728041        3.9827379920
N               15.2837319525        4.2347494024        5.3628979599
N               10.6443958265       11.1187829425        0.6900762824
N                7.0023388626        3.6589389263        3.0265220080
N                3.0086663287       13.9080617897        2.7845457168
N               -2.5722535883       14.6639984736        5.1209810733
N               -0.4364399965        9.4528103200        0.4481050436
N               13.9855219934        5.1043622843        1.8882789267
N               10.5404016630        9.5596123670        4.2247142832
N                8.4045938726        4.3484370358        6.5611549564
C               10.7037732724       18.5394791405        3.5046300000
O               10.7035756895       18.5395312741        2.3309261880
O               10.7039172129       18.5393340955        4.6783338120



     Writing config-only to output data dir ./tmp/c_MOF_CO2_free.save/ :
     XML data file
     NEW-OLD atomic charge density approx. for the potential

     Check: negative core charge=   -0.000001

     negative rho (up, down):  2.471E-07 0.000E+00

     total cpu time spent up to now is     6606.1 secs

     per-process dynamical memory:   383.0 Mb

     Self-consistent Calculation

     iteration #  1     ecut=    60.00 Ry     beta= 0.30
     Davidson diagonalization with overlap
     ethr =  1.00E-06,  avg # of iterations =  2.0

     Threshold (ethr) on eigenvalues was too large:
     Diagonalizing with lowered threshold

     Davidson diagonalization with overlap
     ethr =  2.72E-09,  avg # of iterations =  5.0

     negative rho (up, down):  2.497E-07 0.000E+00

     total cpu time spent up to now is     6778.8 secs

     total energy              =   -2938.08686972 Ry
     estimated scf accuracy    <       0.00002427 Ry

     iteration #  2     ecut=    60.00 Ry     beta= 0.30
     Davidson diagonalization with overlap
     ethr =  3.98E-09,  avg # of iterations =  1.0

     negative rho (up, down):  2.541E-07 0.000E+00

     total cpu time spent up to now is     6840.2 secs

     total energy              =   -2938.08687005 Ry
     estimated scf accuracy    <       0.00000923 Ry

     iteration #  3     ecut=    60.00 Ry     beta= 0.30
     Davidson diagonalization with overlap
     ethr =  1.51E-09,  avg # of iterations =  4.0

     negative rho (up, down):  2.556E-07 0.000E+00

     total cpu time spent up to now is     6918.3 secs

     total energy              =   -2938.08687134 Ry
     estimated scf accuracy    <       0.00000102 Ry

     iteration #  4     ecut=    60.00 Ry     beta= 0.30
     Davidson diagonalization with overlap
     ethr =  1.67E-10,  avg # of iterations =  5.0

     negative rho (up, down):  2.564E-07 0.000E+00

     total cpu time spent up to now is     6999.7 secs

     total energy              =   -2938.08687160 Ry
     estimated scf accuracy    <       0.00000021 Ry

     iteration #  5     ecut=    60.00 Ry     beta= 0.30
     Davidson diagonalization with overlap
     ethr =  3.37E-11,  avg # of iterations =  3.5

     negative rho (up, down):  2.567E-07 0.000E+00

     total cpu time spent up to now is     7066.8 secs

     total energy              =   -2938.08687161 Ry
     estimated scf accuracy    <       0.00000005 Ry

     iteration #  6     ecut=    60.00 Ry     beta= 0.30
     Davidson diagonalization with overlap
     ethr =  7.50E-12,  avg # of iterations =  7.0

     negative rho (up, down):  2.568E-07 0.000E+00

     total cpu time spent up to now is     7167.6 secs

     total energy              =   -2938.08687162 Ry
     estimated scf accuracy    <       0.00000006 Ry

     iteration #  7     ecut=    60.00 Ry     beta= 0.30
     Davidson diagonalization with overlap
     ethr =  7.50E-12,  avg # of iterations =  6.0

     negative rho (up, down):  2.569E-07 0.000E+00

     total cpu time spent up to now is     7246.9 secs

     total energy              =   -2938.08687165 Ry
     estimated scf accuracy    <          3.7E-09 Ry

     iteration #  8     ecut=    60.00 Ry     beta= 0.30
     Davidson diagonalization with overlap
     ethr =  6.02E-13,  avg # of iterations =  7.5

     negative rho (up, down):  2.568E-07 0.000E+00

     total cpu time spent up to now is     7353.9 secs

     total energy              =   -2938.08687164 Ry
     estimated scf accuracy    <          3.3E-09 Ry

     iteration #  9     ecut=    60.00 Ry     beta= 0.30
     Davidson diagonalization with overlap
     ethr =  5.46E-13,  avg # of iterations =  6.0

     negative rho (up, down):  2.568E-07 0.000E+00

     total cpu time spent up to now is     7440.2 secs

     End of self-consistent calculation

          k = 0.0000 0.0000 0.0000 (154911 PWs)   bands (ev):

   -25.0738 -24.1279 -22.3641 -22.3640 -22.2224 -22.2224 -22.2222 -22.2221
   -20.4251 -20.4248 -20.4100 -20.4097 -20.4095 -20.4092 -19.9447 -19.9443
   -19.9284 -19.9282 -19.9281 -19.9280 -18.6526 -18.6516 -18.6511 -18.6501
   -18.6479 -18.6468 -18.0727 -18.0716 -18.0713 -18.0701 -18.0682 -18.0668
   -17.0333 -17.0247 -17.0243 -16.3887 -16.3674 -16.3670 -15.3502 -15.3502
   -15.3408 -15.2871 -15.2870 -15.2779 -14.7192 -14.7127 -14.7093 -14.7093
   -14.7084 -14.7040 -14.6136 -14.5589 -14.5585 -14.4429 -14.4340 -14.4336
   -14.2034 -14.2031 -14.1929 -13.0488 -12.9747 -12.9744 -12.6739 -12.6716
   -12.6650 -12.6592 -12.6574 -12.6526 -11.6221 -11.6209 -11.6142 -11.5936
   -11.5927 -11.5858 -11.5623 -11.5587 -11.5482 -11.1901 -11.1899 -11.1591
   -10.7230 -10.7207 -10.7141 -10.7088 -10.6971 -10.6940 -10.6819 -10.5971
   -10.5968 -10.2808 -10.2804 -10.2386  -9.8439  -9.7402  -9.6846  -9.6808
    -9.6753  -9.6398  -9.6361  -9.6307  -9.4639  -9.4636  -9.3790  -8.8783
    -8.8781  -8.7251  -8.6979  -8.6909  -8.6812  -8.6794  -8.6651  -8.6631
    -8.6469  -8.6463  -8.5066  -8.5062  -8.4152  -8.3639  -8.3611  -8.3399
    -8.3000  -8.2880  -8.2852  -8.0073  -8.0072  -7.8131  -7.6891  -7.6823
    -7.6821  -7.6074  -7.6071  -7.5359  -7.4526  -7.4524  -7.4022  -7.3493
    -7.3457  -7.3445  -7.3189  -7.3185  -7.2321  -7.2242  -7.2239  -7.2173
    -7.1673  -7.1673  -7.0736  -7.0695  -7.0619  -7.0613  -6.9936  -6.9934
    -6.9000  -6.8966  -6.8941  -6.8346  -6.8327  -6.6939  -6.6388  -6.5849
    -6.5846  -6.5322  -6.5139  -6.5105  -6.5044  -6.4883  -6.4865  -6.4555
    -6.4531  -6.4325  -6.4103  -6.3097  -6.2835  -6.1820  -6.1814  -6.1710
    -6.1691  -6.0945  -6.0927  -6.0632  -6.0517  -6.0515  -6.0359  -5.9929
    -5.9924  -5.9533  -5.9287  -5.9257  -5.9064  -5.6441  -5.6305  -5.6245
    -5.6219  -5.6169  -5.6140  -5.5149  -5.5144  -5.4118  -5.3893  -5.3888
    -5.3880  -5.3216  -5.3214  -5.2833  -5.2522  -5.2267  -5.2245  -5.2106
    -5.2019  -5.2000  -5.1115  -5.1102  -5.0948  -5.0723  -5.0693  -5.0251
    -5.0220  -5.0181  -4.9058  -4.9054  -4.8915  -4.7529  -4.7526  -4.6465
    -4.4368  -4.4357  -4.3740  -4.3719  -4.3514  -4.3403  -4.2847  -4.2709
    -4.2694  -4.2029  -4.2024  -4.1609  -4.1320  -4.1285  -4.1217  -4.1122
    -4.0860  -4.0805  -3.9543  -3.9514  -3.9375  -3.9250  -3.8766  -3.8728
    -3.8253  -3.8223  -3.7703  -3.7663  -3.7239  -3.7203  -3.7202  -3.6098
    -3.5889  -3.5875  -3.3824  -3.3821  -3.3703  -3.3701  -3.3437  -3.0809
    -3.0808  -3.0275  -3.0081  -2.9866  -2.9866  -2.7724  -2.7713  -2.6974
    -2.6964  -2.5576  -2.5537  -2.4615  -2.4614  -2.4547  -2.4545  -2.3892
    -2.3822  -2.1303  -2.1300  -2.1186  -2.1183  -2.0925  -2.0835  -1.9155
    -1.9154  -1.8883  -1.8881  -1.7387  -1.7378  -1.5238  -1.5234  -1.4539
    -1.2986  -1.2960  -1.2932  -1.2573  -1.2565  -1.2532  -0.6198  -0.6195
    -0.5430

          k = 0.0000 0.0000-1.5660 (154844 PWs)   bands (ev):

   -25.0737 -24.1281 -22.3046 -22.3046 -22.3044 -22.3044 -22.1913 -22.1913
   -20.4574 -20.4571 -20.4571 -20.4568 -20.3959 -20.3954 -19.9229 -19.9226
   -19.9225 -19.9223 -19.8999 -19.8998 -18.6162 -18.6151 -18.6136 -18.6125
   -18.6111 -18.6099 -18.1241 -18.1228 -18.1206 -18.1193 -18.1184 -18.1171
   -17.0145 -17.0143 -17.0138 -16.3768 -16.3765 -16.3741 -15.3455 -15.3455
   -15.3360 -15.2823 -15.2823 -15.2731 -14.7086 -14.7083 -14.7054 -14.7053
   -14.7034 -14.7002 -14.5743 -14.5740 -14.5600 -14.4856 -14.4853 -14.4802
   -14.1953 -14.1950 -14.1882 -13.0126 -13.0123 -12.9836 -12.6816 -12.6767
   -12.6734 -12.6685 -12.6631 -12.6599 -11.6090 -11.6086 -11.5644 -11.5462
   -11.5445 -11.5377 -11.4912 -11.4875 -11.4814 -11.1462 -11.1459 -11.0849
   -10.7547 -10.7531 -10.7484 -10.7291 -10.7269 -10.7222 -10.6081 -10.6078
   -10.5395 -10.2843 -10.2841 -10.2501  -9.8283  -9.6975  -9.6946  -9.6844
    -9.6586  -9.6582  -9.6439  -9.6438  -9.6384  -9.4893  -9.2009  -9.2007
    -8.8267  -8.7702  -8.7691  -8.7670  -8.7658  -8.7461  -8.7322  -8.7267
    -8.6462  -8.6456  -8.4400  -8.3446  -8.3444  -8.1392  -8.1365  -8.1232
    -8.0590  -8.0569  -8.0503  -7.9496  -7.8972  -7.8970  -7.8366  -7.8362
    -7.7723  -7.5902  -7.5062  -7.5058  -7.4474  -7.4462  -7.4453  -7.4081
    -7.3908  -7.3888  -7.3209  -7.3091  -7.2714  -7.2712  -7.2573  -7.1925
    -7.1900  -7.1727  -7.1536  -7.1502  -7.1114  -7.1092  -6.9372  -6.9089
    -6.8576  -6.8572  -6.7591  -6.7569  -6.7232  -6.6360  -6.6339  -6.6299
    -6.5723  -6.5719  -6.5471  -6.5022  -6.4771  -6.4767  -6.4469  -6.4445
    -6.3961  -6.3955  -6.3820  -6.3591  -6.3100  -6.3089  -6.2782  -6.2782
    -6.2596  -6.2593  -6.2282  -6.1818  -6.1748  -6.1742  -6.1019  -6.0873
    -6.0837  -6.0826  -6.0801  -6.0674  -6.0417  -6.0109  -5.9840  -5.9799
    -5.8668  -5.8329  -5.8277  -5.5511  -5.5507  -5.5306  -5.4834  -5.4043
    -5.4037  -5.3729  -5.3717  -5.3118  -5.2911  -5.2900  -5.2841  -5.2371
    -5.2006  -5.1998  -5.1153  -5.1143  -5.0625  -5.0609  -5.0567  -5.0124
    -5.0106  -5.0058  -4.7236  -4.7233  -4.7163  -4.6768  -4.6765  -4.5948
    -4.5061  -4.4103  -4.3850  -4.3842  -4.3625  -4.3622  -4.2620  -4.2618
    -4.2593  -4.1253  -4.1224  -4.1137  -4.0957  -4.0924  -4.0720  -4.0591
    -4.0566  -4.0555  -3.9611  -3.9269  -3.9232  -3.8886  -3.8860  -3.8111
    -3.8055  -3.6762  -3.5922  -3.5596  -3.5591  -3.4182  -3.4165  -3.4084
    -3.4002  -3.3980  -3.3891  -3.3568  -3.3562  -3.2803  -3.2800  -3.0135
    -2.9311  -2.9206  -2.9205  -2.8963  -2.8963  -2.8100  -2.7617  -2.7616
    -2.7238  -2.7235  -2.7102  -2.4383  -2.4338  -2.3966  -2.3965  -2.3895
    -2.3894  -2.1971  -2.1619  -2.1616  -2.1209  -2.0757  -2.0754  -1.9305
    -1.9303  -1.9163  -1.9162  -1.9095  -1.8770  -1.5092  -1.5089  -1.4513
    -1.2926  -1.2906  -1.2824  -1.2579  -1.2562  -1.2510  -0.5992  -0.5809
    -0.5806

     highest occupied level (ev):    -0.5430

!    total energy              =   -2938.08687163 Ry
     estimated scf accuracy    <          1.7E-10 Ry

     The total energy is the sum of the following terms:
     one-electron contribution =   -5751.79850709 Ry
     hartree contribution      =    3071.29477235 Ry
     xc contribution           =    -693.82171195 Ry
     ewald contribution        =    1356.13332759 Ry
     one-center paw contrib.   =    -919.89475252 Ry

     convergence has been achieved in   9 iterations

     negative rho (up, down):  2.568E-07 0.000E+00

     Forces acting on atoms (cartesian axes, Ry/au):

     atom    1 type  1   force =     0.00026263   -0.00005689    0.00021329
     atom    2 type  1   force =    -0.00008243    0.00025124    0.00021352
     atom    3 type  1   force =    -0.00017655   -0.00020323    0.00021482
     atom    4 type  1   force =     0.00025880    0.00005423   -0.00021352
     atom    5 type  1   force =    -0.00018058    0.00019900   -0.00021329
     atom    6 type  1   force =    -0.00008773   -0.00025451   -0.00021482
     atom    7 type  2   force =    -0.00017112    0.00040820    0.00025456
     atom    8 type  2   force =    -0.00027051   -0.00035142    0.00025414
     atom    9 type  2   force =     0.00043931   -0.00005596    0.00025454
     atom   10 type  2   force =    -0.00016909   -0.00040998   -0.00025414
     atom   11 type  2   force =     0.00043907    0.00005591   -0.00025456
     atom   12 type  2   force =    -0.00026812    0.00035247   -0.00025454
     atom   13 type  2   force =    -0.00007055    0.00082300   -0.00011613
     atom   14 type  2   force =    -0.00067676   -0.00047189   -0.00011596
     atom   15 type  2   force =     0.00074194   -0.00034567   -0.00011357
     atom   16 type  2   force =    -0.00007029   -0.00082204    0.00011596
     atom   17 type  2   force =     0.00074802    0.00035041    0.00011613
     atom   18 type  2   force =    -0.00067033    0.00046971    0.00011357
     atom   19 type  2   force =    -0.00009433    0.00019098   -0.00060932
     atom   20 type  2   force =    -0.00011911   -0.00017742   -0.00060927
     atom   21 type  2   force =     0.00021130   -0.00001471   -0.00059985
     atom   22 type  2   force =    -0.00009409   -0.00019186    0.00060927
     atom   23 type  2   force =     0.00021256    0.00001380    0.00060932
     atom   24 type  2   force =    -0.00011839    0.00017563    0.00059985
     atom   25 type  3   force =     0.00028205   -0.00002284    0.00015451
     atom   26 type  3   force =    -0.00012108    0.00025608    0.00015470
     atom   27 type  3   force =    -0.00016060   -0.00023188    0.00015692
     atom   28 type  3   force =     0.00028231    0.00002318   -0.00015470
     atom   29 type  3   force =    -0.00016080    0.00023284   -0.00015451
     atom   30 type  3   force =    -0.00012052   -0.00025503   -0.00015692
     atom   31 type  3   force =    -0.00011814   -0.00011620   -0.00009881
     atom   32 type  3   force =     0.00015932   -0.00004513   -0.00009937
     atom   33 type  3   force =    -0.00004190    0.00016248   -0.00010007
     atom   34 type  3   force =    -0.00011875    0.00011541    0.00009937
     atom   35 type  3   force =    -0.00004156   -0.00016041    0.00009881
     atom   36 type  3   force =     0.00016167    0.00004496    0.00010007
     atom   37 type  3   force =    -0.00016264    0.00005092   -0.00081064
     atom   38 type  3   force =     0.00003629   -0.00016690   -0.00081092
     atom   39 type  3   force =     0.00012616    0.00011649   -0.00081105
     atom   40 type  3   force =    -0.00016269   -0.00005202    0.00081092
     atom   41 type  3   force =     0.00012542   -0.00011539    0.00081064
     atom   42 type  3   force =     0.00003780    0.00016750    0.00081105
     atom   43 type  3   force =    -0.00006423    0.00005418    0.00020084
     atom   44 type  3   force =    -0.00000673   -0.00008279    0.00020269
     atom   45 type  3   force =     0.00007770    0.00003450    0.00019862
     atom   46 type  3   force =    -0.00006833   -0.00004723   -0.00020269
     atom   47 type  3   force =     0.00007903   -0.00002854   -0.00020084
     atom   48 type  3   force =    -0.00000897    0.00008454   -0.00019862
     atom   49 type  3   force =     0.00031622   -0.00012774    0.00024317
     atom   50 type  3   force =    -0.00003108    0.00032135    0.00024210
     atom   51 type  3   force =    -0.00025873   -0.00017563    0.00024136
     atom   52 type  3   force =     0.00029384    0.00013376   -0.00024210
     atom   53 type  3   force =    -0.00026873    0.00020998   -0.00024317
     atom   54 type  3   force =    -0.00002273   -0.00031188   -0.00024136
     atom   55 type  3   force =     0.00010069    0.00004551    0.00061083
     atom   56 type  3   force =    -0.00007537    0.00004835    0.00060750
     atom   57 type  3   force =    -0.00001365   -0.00007876    0.00060878
     atom   58 type  3   force =     0.00007955   -0.00004110   -0.00060750
     atom   59 type  3   force =    -0.00001093    0.00010996   -0.00061083
     atom   60 type  3   force =    -0.00006138   -0.00005120   -0.00060878
     atom   61 type  3   force =     0.00001528   -0.00036897   -0.00069092
     atom   62 type  3   force =     0.00032883    0.00018942   -0.00068196
     atom   63 type  3   force =    -0.00032604    0.00018840   -0.00068228
     atom   64 type  3   force =    -0.00000037    0.00037949    0.00068196
     atom   65 type  3   force =    -0.00032718   -0.00017125    0.00069092
     atom   66 type  3   force =     0.00032618   -0.00018816    0.00068228
     atom   67 type  3   force =     0.00013614    0.00006436   -0.00055114
     atom   68 type  3   force =    -0.00010784    0.00007832   -0.00055915
     atom   69 type  3   force =    -0.00001866   -0.00013439   -0.00055653
     atom   70 type  3   force =     0.00012175   -0.00005423    0.00055915
     atom   71 type  3   force =    -0.00001233    0.00015008    0.00055114
     atom   72 type  3   force =    -0.00010706   -0.00008335    0.00055653
     atom   73 type  3   force =     0.00015316    0.00041595    0.00060688
     atom   74 type  3   force =    -0.00041228   -0.00008200    0.00060899
     atom   75 type  3   force =     0.00027676   -0.00031198    0.00060524
     atom   76 type  3   force =     0.00013513   -0.00039804   -0.00060899
     atom   77 type  3   force =     0.00028365    0.00034061   -0.00060688
     atom   78 type  3   force =    -0.00040856    0.00008369   -0.00060524
     atom   79 type  3   force =     0.00035953    0.00028766    0.00009510
     atom   80 type  3   force =    -0.00040041    0.00014328    0.00008649
     atom   81 type  3   force =     0.00006297   -0.00040998    0.00008795
     atom   82 type  3   force =     0.00032429   -0.00027512   -0.00008649
     atom   83 type  3   force =     0.00006935    0.00045520   -0.00009510
     atom   84 type  3   force =    -0.00038654   -0.00015046   -0.00008795
     atom   85 type  3   force =    -0.00006697    0.00016482   -0.00015709
     atom   86 type  3   force =    -0.00010458   -0.00014528   -0.00014422
     atom   87 type  3   force =     0.00015992   -0.00001274   -0.00015278
     atom   88 type  3   force =    -0.00007352   -0.00016320    0.00014422
     atom   89 type  3   force =     0.00017622    0.00002441    0.00015709
     atom   90 type  3   force =    -0.00009099    0.00013213    0.00015278
     atom   91 type  3   force =     0.00012927    0.00007782   -0.00028686
     atom   92 type  3   force =    -0.00011447    0.00006475   -0.00027920
     atom   93 type  3   force =    -0.00000789   -0.00014081   -0.00028638
     atom   94 type  3   force =     0.00011331   -0.00006676    0.00027920
     atom   95 type  3   force =     0.00000276    0.00015086    0.00028686
     atom   96 type  3   force =    -0.00011800   -0.00007724    0.00028638
     atom   97 type  3   force =    -0.00013941   -0.00019794   -0.00029418
     atom   98 type  3   force =     0.00025544   -0.00002092   -0.00028823
     atom   99 type  3   force =    -0.00010040    0.00023247   -0.00029505
     atom  100 type  3   force =    -0.00014584    0.00021076    0.00028823
     atom  101 type  3   force =    -0.00010172   -0.00021970    0.00029418
     atom  102 type  3   force =     0.00025152    0.00002929    0.00029505
     atom  103 type  3   force =     0.00000962    0.00016177   -0.00001929
     atom  104 type  3   force =    -0.00012757   -0.00008938   -0.00001410
     atom  105 type  3   force =     0.00014160   -0.00006731   -0.00001898
     atom  106 type  3   force =    -0.00001362   -0.00015517    0.00001410
     atom  107 type  3   force =     0.00013528    0.00008922    0.00001929
     atom  108 type  3   force =    -0.00012910    0.00008897    0.00001898
     atom  109 type  3   force =    -0.00003234    0.00007375    0.00039112
     atom  110 type  3   force =    -0.00002926   -0.00007126    0.00039175
     atom  111 type  3   force =     0.00007739    0.00001106    0.00038742
     atom  112 type  3   force =    -0.00004708   -0.00006097   -0.00039175
     atom  113 type  3   force =     0.00008004    0.00000887   -0.00039112
     atom  114 type  3   force =    -0.00002912    0.00007255   -0.00038742
     atom  115 type  3   force =     0.00002304   -0.00003798   -0.00019978
     atom  116 type  3   force =     0.00002384    0.00003633   -0.00019541
     atom  117 type  3   force =    -0.00004253    0.00000009   -0.00019997
     atom  118 type  3   force =     0.00001955    0.00003881    0.00019541
     atom  119 type  3   force =    -0.00004441    0.00000096    0.00019978
     atom  120 type  3   force =     0.00002135   -0.00003678    0.00019997
     atom  121 type  3   force =    -0.00008461   -0.00021409    0.00005612
     atom  122 type  3   force =     0.00023269    0.00003344    0.00005585
     atom  123 type  3   force =    -0.00014318    0.00018258    0.00005257
     atom  124 type  3   force =    -0.00008739    0.00021824   -0.00005585
     atom  125 type  3   force =    -0.00014310   -0.00018032   -0.00005612
     atom  126 type  3   force =     0.00022971   -0.00003270   -0.00005257
     atom  127 type  4   force =     0.00015841   -0.00048389   -0.00006741
     atom  128 type  4   force =     0.00034196    0.00037986   -0.00006802
     atom  129 type  4   force =    -0.00049575    0.00010342   -0.00006873
     atom  130 type  4   force =     0.00015799    0.00048608    0.00006802
     atom  131 type  4   force =    -0.00049827   -0.00010475    0.00006741
     atom  132 type  4   force =     0.00033744   -0.00037762    0.00006873
     atom  133 type  4   force =     0.00012894    0.00010738    0.00005668
     atom  134 type  4   force =    -0.00015638    0.00005477    0.00005571
     atom  135 type  4   force =     0.00002417   -0.00016292    0.00006019
     atom  136 type  4   force =     0.00012562   -0.00010804   -0.00005571
     atom  137 type  4   force =     0.00002853    0.00016535   -0.00005668
     atom  138 type  4   force =    -0.00015318   -0.00006053   -0.00006019
     atom  139 type  4   force =     0.00013948    0.00025420    0.00025076
     atom  140 type  4   force =    -0.00028688   -0.00000635    0.00024972
     atom  141 type  4   force =     0.00015022   -0.00024879    0.00024515
     atom  142 type  4   force =     0.00013794   -0.00025162   -0.00024972
     atom  143 type  4   force =     0.00015040    0.00024790   -0.00025076
     atom  144 type  4   force =    -0.00029056    0.00000570   -0.00024515
     atom  145 type  4   force =     0.00000095   -0.00003741   -0.00000131
     atom  146 type  4   force =     0.00003188    0.00001893   -0.00000068
     atom  147 type  4   force =    -0.00003248    0.00001964    0.00000060
     atom  148 type  4   force =     0.00000045    0.00003707    0.00000068
     atom  149 type  4   force =    -0.00003287   -0.00001788    0.00000131
     atom  150 type  4   force =     0.00003324   -0.00001831   -0.00000060
     atom  151 type  4   force =     0.00005959    0.00083064   -0.00041417
     atom  152 type  4   force =    -0.00074782   -0.00036405   -0.00041518
     atom  153 type  4   force =     0.00069038   -0.00046622   -0.00041577
     atom  154 type  4   force =     0.00005863   -0.00082966    0.00041518
     atom  155 type  4   force =     0.00068956    0.00046693    0.00041417
     atom  156 type  4   force =    -0.00074895    0.00036478    0.00041577
     atom  157 type  4   force =    -0.00037836   -0.00029243    0.00035336
     atom  158 type  4   force =     0.00044178   -0.00018416    0.00035432
     atom  159 type  4   force =    -0.00006528    0.00047533    0.00035282
     atom  160 type  4   force =    -0.00038037    0.00029051   -0.00035432
     atom  161 type  4   force =    -0.00006407   -0.00047388   -0.00035336
     atom  162 type  4   force =     0.00044429    0.00018113   -0.00035282
     atom  163 type  4   force =    -0.00019241   -0.00064708    0.00047295
     atom  164 type  4   force =     0.00065576    0.00015737    0.00047399
     atom  165 type  4   force =    -0.00045843    0.00048128    0.00046249
     atom  166 type  4   force =    -0.00019160    0.00064659   -0.00047399
     atom  167 type  4   force =    -0.00046418   -0.00049018   -0.00047295
     atom  168 type  4   force =     0.00064602   -0.00015637   -0.00046249
     atom  169 type  4   force =     0.00011260    0.00014996    0.00029295
     atom  170 type  4   force =    -0.00017330    0.00001847    0.00029227
     atom  171 type  4   force =     0.00007398   -0.00015469    0.00029168
     atom  172 type  4   force =     0.00010265   -0.00014085   -0.00029227
     atom  173 type  4   force =     0.00007357    0.00017250   -0.00029295
     atom  174 type  4   force =    -0.00017096   -0.00001327   -0.00029168
     atom  175 type  4   force =     0.00000704    0.00026612   -0.00000182
     atom  176 type  4   force =    -0.00022285   -0.00013305    0.00000634
     atom  177 type  4   force =     0.00022588   -0.00011998    0.00000716
     atom  178 type  4   force =    -0.00000381   -0.00025952   -0.00000634
     atom  179 type  4   force =     0.00022694    0.00013916    0.00000182
     atom  180 type  4   force =    -0.00021685    0.00013563   -0.00000716
     atom  181 type  4   force =    -0.00007364   -0.00000123   -0.00029185
     atom  182 type  4   force =     0.00005062   -0.00007455   -0.00029258
     atom  183 type  4   force =     0.00002851    0.00007693   -0.00028567
     atom  184 type  4   force =    -0.00008987    0.00000656    0.00029258
     atom  185 type  4   force =     0.00003575   -0.00006439    0.00029185
     atom  186 type  4   force =     0.00005236    0.00006316    0.00028567
     atom  187 type  4   force =     0.00026035   -0.00013240   -0.00007447
     atom  188 type  4   force =    -0.00000360    0.00029261   -0.00008348
     atom  189 type  4   force =    -0.00025598   -0.00014700   -0.00007888
     atom  190 type  4   force =     0.00025521    0.00014319    0.00008348
     atom  191 type  4   force =    -0.00024484    0.00015927    0.00007447
     atom  192 type  4   force =     0.00000069   -0.00029519    0.00007888
     atom  193 type  4   force =     0.00004979    0.00005728    0.00001721
     atom  194 type  4   force =    -0.00008728    0.00001745    0.00002372
     atom  195 type  4   force =     0.00001737   -0.00005194    0.00002198
     atom  196 type  4   force =     0.00005875   -0.00006687   -0.00002372
     atom  197 type  4   force =     0.00002471    0.00007176   -0.00001721
     atom  198 type  4   force =    -0.00005367   -0.00001093   -0.00002198
     atom  199 type  4   force =     0.00012990    0.00019932    0.00004665
     atom  200 type  4   force =    -0.00022709    0.00000634    0.00004656
     atom  201 type  4   force =     0.00010687   -0.00019604    0.00004669
     atom  202 type  4   force =     0.00011904   -0.00019350   -0.00004656
     atom  203 type  4   force =     0.00010766    0.00021216   -0.00004665
     atom  204 type  4   force =    -0.00022321   -0.00000547   -0.00004669
     atom  205 type  5   force =     0.00031213    0.00009237   -0.00004828
     atom  206 type  5   force =    -0.00021997    0.00021794   -0.00005052
     atom  207 type  5   force =    -0.00008039   -0.00028929   -0.00004992
     atom  208 type  5   force =     0.00029873   -0.00008153    0.00005052
     atom  209 type  5   force =    -0.00007607    0.00031649    0.00004828
     atom  210 type  5   force =    -0.00021034   -0.00021426    0.00004992
     atom  211 type  5   force =    -0.00004442   -0.00004915   -0.00015711
     atom  212 type  5   force =     0.00007088   -0.00002311   -0.00015211
     atom  213 type  5   force =    -0.00001756    0.00007370   -0.00015363
     atom  214 type  5   force =    -0.00005545    0.00004983    0.00015211
     atom  215 type  5   force =    -0.00002036   -0.00006304    0.00015711
     atom  216 type  5   force =     0.00007260    0.00002164    0.00015363
     atom  217 type  4   force =    -0.00009964   -0.00017257    0.00000000
     atom  218 type  2   force =    -0.00012206   -0.00016349    0.00117158
     atom  219 type  2   force =    -0.00008056   -0.00018745   -0.00117158

     Total force =     0.007158     Total SCF correction =     0.000023
     Energy error            =      7.9E-05 Ry
     Gradient error          =      1.2E-03 Ry/Bohr

     number of scf cycles    =   9
     number of bfgs steps    =   8

     energy             old  =   -2938.0867928450 Ry
     energy             new  =   -2938.0868716312 Ry

     CASE: energy            _new < energy            _old

     new trust radius        =       0.0039129986 bohr
     new conv_thr            =       0.0000000010 Ry


ATOMIC_POSITIONS (angstrom)
Mg              10.2297898913        5.4276846557        5.8279496170
Mg              12.1382152647        6.1454740330        1.1550983879
Mg              10.5624172723        7.4394026434        3.4915606366
Mg              -0.7469710014       13.5847397922        5.8541616121
Mg              -0.4143821500       11.5731002490        1.1813103830
Mg               1.1615030420       12.8670230048        3.5176993634
O               11.4499012875        4.4590347086        0.1792290368
O               12.3671051855        7.6863321470        2.5156616807
O                9.1135287341        6.8670122275        4.8520678055
O                0.4730063086       14.5533933354        4.4935983193
O               -1.8633133097       12.1454227401        6.8300309632
O                1.3902426700       11.3260535156        2.1571921945
O               10.8144564488        5.4819013868        2.6542034824
O               11.7990071305        6.6245952385        4.9905967781
O               10.3170792909        6.9058939368        0.3177582829
O               -0.1624357988       13.5305375336        2.0186632219
O               -0.6597623624       12.1065447061        4.3550565176
O                0.8221399397       12.3877997271        6.6915017171
O               10.2312825976        4.0561647127        4.2810145683
O               13.3252882877        6.8324612236        6.6174339835
O                9.3738980815        8.1237236320        1.9446051411
O               -0.7455591538       14.9562687817        0.3918260165
O               -1.6028996156       10.8886329991        2.7282454317
O                2.3484019980       12.1798956870        5.0646548589
H               10.5724554433        1.7583163597        3.7775686418
H               15.1446964167        8.2768600745        6.1139917185
H                7.2133633370        8.9772767029        1.4411441622
H               -0.4043771203       17.2541218667        0.8952682815
H               -3.7634810863       10.0351731741        3.2316913582
H                4.1678680131       10.7355942480        5.5681158378
H                0.8055270477       18.9796139365        0.0617950668
H               -5.8627567419       10.2202207966        2.3982073527
H                5.0572497693        8.8250471798        4.7346288758
H               11.7823492131        0.0328141236        4.6110526473
H               16.0340642992       10.1874138549        6.9474649332
H                5.1140901627        8.7922303634        2.2746311242
H               11.8763911537        2.2086210644        6.0406574491
H               14.1027365986        9.1809516830        1.3678171056
H                6.9513714760        7.6228784099        3.7042343215
H                0.8995690892       16.8038039987        5.6414428944
H               -4.0254736277       11.3895669766        0.9686025509
H                3.1259206150        9.8315034942        3.3050256785
H                2.7221622156       15.5481214154        1.4791586701
H               -3.8493176086       13.5958539504        3.8155872059
H                1.1271368764        8.8809115351        6.1519846268
H               13.6990137115        3.4643201389        3.1936727941
H               12.1039870190       10.1315223396        5.5301013299
H                7.1275265600        5.4165849360        0.8572753732
H                3.6215906363       14.1493240211        5.8989080142
H               -3.0875805756       15.0740499909        1.2260958178
H               -0.5338339753        8.8014435543        3.5623988467
H               14.5983005179        4.8631017808        5.7831641822
H               10.4428787305       10.2110515038        1.1103519858
H                7.8891906956        3.9384079932        3.4468611533
H                6.0024292499       13.6407163470        5.6301138501
H               -3.8374997545       17.3902945825        0.9572664701
H               -2.1648567222        6.9937744404        3.2936510244
H               16.9791867650        5.3717750168        6.0519935299
H                8.8119922574       12.0186143883        1.3791461499
H                7.1392146948        1.6220663031        3.7156089756
H                5.4010246277       14.9020274165        4.5356462125
H               -4.6293409411       16.2388900631        6.8721012693
H               -0.7718085036        6.8839244352        2.1991925598
H               16.3779617944        4.1103181738        0.1371587307
H               10.2050219968       12.1284382423        2.4736137875
H                6.3475576905        2.7735564466        4.8100674402
H                5.0334313165       16.4301672466        1.3698369149
H               -5.7687421576       15.1564248831        3.7063121646
H                0.7353162432        6.4383017227        6.0427499780
H               16.0102200581        2.5823351851        3.3029478354
H               11.7122265658       12.5741630115        5.6394230851
H                5.2080747275        3.8559534078        0.9665100220
H                5.5971095579       15.1467022673        2.4497500500
H               -4.9392824791       16.2863535271        4.7862026513
H               -0.6579737667        6.5916985484        0.1133113114
H               16.5740371290        3.8656326601        2.2230573487
H               10.3188741680       12.4205901985        4.5595099500
H                6.0375652803        2.7260272772        6.8959486886
H                7.2683949652       14.4012953468        0.8066054940
H               -5.1291387796       18.1064075807        3.1431672311
H               -2.1392438853        5.5175090309        5.4794488907
H               18.2451783260        4.6112393077        3.8660927689
H                8.8376901351       13.4952623579        6.2026545060
H                5.8479249290        0.9061149658        1.5298111093
H                7.4999360567       16.1219878189        1.1049238452
H               -6.7342294101       17.4459997207        3.4427196895
H               -0.7649364194        4.4574439841        5.7791380079
H               18.4757936576        2.8909861162        3.5665403105
H               10.2120829824       14.5561290613        5.9043361548
H                4.2427279359        1.5662676205        1.2301219921
H                6.2546173289       16.6755725425        6.0197708304
H               -6.5916328956       16.0912110509        1.3464343006
H                0.3373314407        5.2586085581        3.6830498465
H               17.2312139955        2.3370839854        5.6628256994
H               11.3141607800       13.7544437691        0.9894891696
H                4.3854228796        2.9214418761        3.3262101535
H                7.5692960102       15.5575895125        5.6353275330
H               -6.2806236209       17.7883430519        0.9617021438
H               -1.2884599293        4.6795320683        3.2980454599
H               18.5454687847        3.4549919186        6.0475578562
H                9.6886197343       14.3339973898        1.3739324670
H                4.6968236137        1.2239270036        3.7112145401
H                2.3367271903       13.9807764936        0.7865428032
H               -2.2992312643       14.0457415557        3.1229592071
H               -0.0374918354        9.9984202891        5.4593581823
H               13.3135846343        5.0316780937        3.8863007929
H               10.9393440129        9.0140533552        6.2227171968
H                8.6776318857        4.9667412626        1.5499018177
H                4.8344326984       13.4135596019        0.8727533818
H               -3.0568386327       16.4924061384        3.2091834596
H               -1.7775837487        8.1189751812        5.5455496933
H               15.8112620017        5.5989031580        3.8000765404
H                9.1992670212       10.8935213307        6.1365066182
H                7.9200306340        2.5200549068        1.4637103067
H                3.6976391732       13.1535536755        2.8525497371
H               -2.2632331294       15.6378812557        5.1890151055
H               -1.4343487283        9.2334360634        0.5161336090
H               14.6744189936        5.8589232430        1.8202448945
H                9.5424920464        9.7790262957        4.1567102629
H                8.7135645594        3.3745355951        6.4931263910
H                3.2882487440       14.6028405931        3.4772693020
H               -3.3137091333       14.5586957680        5.8137275679
H                0.0255028790        8.8633320243        1.1408221205
H               14.2650549477        4.4095915938        1.1955324321
H               11.0023065491       10.1491272428        3.5319906980
H                7.6631192557        4.4537521532        5.8684378795
C               11.3181392893        3.2781898694        0.8020934344
C               13.4556200737        8.1626705828        3.1385098404
C                8.1567602191        7.5715514816        5.4749349189
C                0.3412700507       15.7342440989        3.8707501596
C               -2.8200739393       11.4408910828        6.2071665656
C                2.4787758196       10.8497373032        1.5343250811
C               10.9488049340        3.1273325709        2.1853590157
C               13.7709354152        7.9182549912        4.5217755715
C                8.2107777636        7.9668249343        6.8581958912
C               -0.0280577316       15.8851073990        2.4874844285
C               -2.7660530146       11.0456094993        4.8239009843
C                2.7940838988       11.0941545952        0.1510641088
C               10.8725829083        1.8301981457        2.7398008687
C               14.9323855664        8.5008260072        5.0762208474
C                7.1255404315        8.6814017221        0.4033847160
C               -0.1042615077       17.1822382432        1.9330391526
C               -3.8512933660       10.3310320763        4.2694591313
C                3.9555442161       10.5115998904        6.6058752840
C               11.1655671856        0.6707884610        2.0162743055
C               15.7899664937        9.3342633674        4.3526887673
C                5.9749735080        9.0073752012        6.6891128827
C                0.1887259549       18.3416437921        2.6565712327
C               -5.0018637450       10.0050590609        4.9929856945
C                4.8131289918        9.6781664454        0.3201471173
C               11.5167305695        0.8356007462        0.6535410179
C               15.4716516156        9.5559646888        2.9899537455
C                5.9421335088        8.6208655217        5.3263815328
C                0.5398823703       18.1768256820        4.0193062545
C               -5.0347138111       10.3915816149        6.3557189821
C                4.4948217900        9.4564713321        1.6828784672
C               11.5780181622        2.0919066037        0.0671813999
C               14.3530169671        8.9808886366        2.4035930966
C                6.9994779225        7.9396285304        4.7400187230
C                0.6011692244       16.9205216327        4.6056669034
C               -3.9773648199       11.0728111558        6.9420786001
C                3.3761810427       10.0315399593        2.2692412770
C               10.6490577944        4.2769790483        3.0907039963
C               12.9251846553        7.0838448292        5.4271154938
C                9.3562590241        7.6515784851        0.7542835012
C               -0.3278027491       14.7354606747        1.5821445062
C               -1.6205563899       11.3608441005        3.9185560037
C                1.9483318351       11.9285472418        6.2549764988
C                4.4475184888       14.4482544857        0.7483594015
C               -3.7593640213       15.6399256537        3.0847766696
C               -0.6880538314        7.9367716944        5.4212041804
C               15.4242549400        4.5642580823        3.9244833304
C               10.2887961805       11.0757912380        6.2609005985
C                7.2174728271        3.3725137500        1.5880558196
C                5.5906822681       14.6685440804        5.5856166426
C               -4.5217005312       16.5197502397        0.9128004853
C               -1.0688256343        6.8367123296        3.2491474932
C               16.5673736374        4.3439675915        6.0964595147
C                9.9079906762       12.1759449088        1.4236433574
C                6.4551793729        2.4927260133        3.7601125068
C                6.6189995522       15.6531053713        6.1698175963
C               -5.8885000501       16.9180738080        1.4968378018
C               -0.7303952286        5.4539611974        3.8334350361
C               17.5957317258        3.3594462704        5.5124221982
C               10.2464871236       13.5587744455        0.8394424037
C                5.0884665625        2.0944397759        3.1758249639
C                5.4558584124       15.4177773294        1.3992787011
C               -5.1030821651       16.0283388656        3.7357817860
C               -0.3526155801        6.5788742800        6.0721345853
C               16.4324897206        3.5947706402        3.2734782140
C               10.6242576310       12.4338006492        5.6099812989
C                5.8737800449        2.9840630898        0.9371254147
C                6.8127859411       15.3899714661        0.6678329952
C               -5.7571473999       17.2172971036        3.0041137377
C               -1.0552317869        5.4177720861        5.3407273768
C               17.7891903762        3.6228126502        4.0051462623
C                9.9217132826       13.5950314285        6.3414270048
C                5.2195441520        1.7950285087        1.6685326232
C                3.0580178744       14.5107988600        1.4079431741
C               -3.1188533009       14.4053393957        3.7444180359
C                0.0608756991        9.1087787681        6.0807748008
C               14.0348165173        4.5016635087        3.2648419641
C               11.0377115049        9.9037205944        5.6013168259
C                7.8579959612        4.6071092860        0.9284851992
N                4.3071862372       14.7776659507        6.3192785663
N               -3.9745149819       15.3536766219        1.6464575684
N               -0.3325864487        7.8935462199        3.9828296045
N               15.2839314869        4.2348073689        5.3628024316
N               10.6442410034       11.1189656756        0.6899814337
N                7.0023047768        3.6587447963        3.0264303955
N                3.0084621385       13.9077585573        2.7843949942
N               -2.5718710369       14.6639579307        5.1208448022
N               -0.4365981726        9.4531573852        0.4479595633
N               13.9852956065        5.1046733121        1.8884151978
N               10.5402411511        9.5592839169        4.2248650058
N                8.4049735279        4.3484735839        6.5613004367
C               10.7035407373       18.5390763780        3.5046300000
O               10.7033002559       18.5391592887        2.3308576323
O               10.7037327809       18.5389095703        4.6784023677



     Writing config-only to output data dir ./tmp/c_MOF_CO2_free.save/ :
     XML data file
     NEW-OLD atomic charge density approx. for the potential

     Check: negative core charge=   -0.000001

     negative rho (up, down):  2.447E-07 0.000E+00

     total cpu time spent up to now is     7475.3 secs

     per-process dynamical memory:   368.5 Mb

     Self-consistent Calculation

     iteration #  1     ecut=    60.00 Ry     beta= 0.30
     Davidson diagonalization with overlap
     ethr =  1.00E-06,  avg # of iterations =  2.0

     Threshold (ethr) on eigenvalues was too large:
     Diagonalizing with lowered threshold

     Davidson diagonalization with overlap
     ethr =  3.36E-09,  avg # of iterations =  5.0

     negative rho (up, down):  2.473E-07 0.000E+00

     total cpu time spent up to now is     7643.6 secs

     total energy              =   -2938.08693592 Ry
     estimated scf accuracy    <       0.00003061 Ry

     iteration #  2     ecut=    60.00 Ry     beta= 0.30
     Davidson diagonalization with overlap
     ethr =  5.02E-09,  avg # of iterations =  1.0

     negative rho (up, down):  2.515E-07 0.000E+00

     total cpu time spent up to now is     7701.8 secs

     total energy              =   -2938.08693627 Ry
     estimated scf accuracy    <       0.00001168 Ry

     iteration #  3     ecut=    60.00 Ry     beta= 0.30
     Davidson diagonalization with overlap
     ethr =  1.91E-09,  avg # of iterations =  3.5

     negative rho (up, down):  2.530E-07 0.000E+00

     total cpu time spent up to now is     7781.0 secs

     total energy              =   -2938.08693781 Ry
     estimated scf accuracy    <       0.00000141 Ry

     iteration #  4     ecut=    60.00 Ry     beta= 0.30
     Davidson diagonalization with overlap
     ethr =  2.31E-10,  avg # of iterations =  5.0

     negative rho (up, down):  2.535E-07 0.000E+00

     total cpu time spent up to now is     7866.5 secs

     total energy              =   -2938.08693814 Ry
     estimated scf accuracy    <       0.00000070 Ry

     iteration #  5     ecut=    60.00 Ry     beta= 0.30
     Davidson diagonalization with overlap
     ethr =  1.15E-10,  avg # of iterations =  5.0

     negative rho (up, down):  2.540E-07 0.000E+00

     total cpu time spent up to now is     7932.7 secs

     total energy              =   -2938.08693821 Ry
     estimated scf accuracy    <       0.00000011 Ry

     iteration #  6     ecut=    60.00 Ry     beta= 0.30
     Davidson diagonalization with overlap
     ethr =  1.77E-11,  avg # of iterations =  6.5

     negative rho (up, down):  2.542E-07 0.000E+00

     total cpu time spent up to now is     8025.2 secs

     total energy              =   -2938.08693822 Ry
     estimated scf accuracy    <       0.00000006 Ry

     iteration #  7     ecut=    60.00 Ry     beta= 0.30
     Davidson diagonalization with overlap
     ethr =  1.05E-11,  avg # of iterations =  5.0

     negative rho (up, down):  2.543E-07 0.000E+00

     total cpu time spent up to now is     8098.8 secs

     total energy              =   -2938.08693824 Ry
     estimated scf accuracy    <          3.7E-09 Ry

     iteration #  8     ecut=    60.00 Ry     beta= 0.30
     Davidson diagonalization with overlap
     ethr =  6.12E-13,  avg # of iterations =  7.5

     negative rho (up, down):  2.544E-07 0.000E+00

     total cpu time spent up to now is     8213.1 secs

     total energy              =   -2938.08693823 Ry
     estimated scf accuracy    <          3.1E-09 Ry

     iteration #  9     ecut=    60.00 Ry     beta= 0.30
     Davidson diagonalization with overlap
     ethr =  5.11E-13,  avg # of iterations =  5.0

     negative rho (up, down):  2.544E-07 0.000E+00

     total cpu time spent up to now is     8300.2 secs

     End of self-consistent calculation

          k = 0.0000 0.0000 0.0000 (154911 PWs)   bands (ev):

   -25.0727 -24.1269 -22.3630 -22.3629 -22.2215 -22.2215 -22.2212 -22.2212
   -20.4239 -20.4235 -20.4085 -20.4081 -20.4079 -20.4076 -19.9440 -19.9436
   -19.9274 -19.9273 -19.9271 -19.9270 -18.6515 -18.6506 -18.6501 -18.6491
   -18.6469 -18.6457 -18.0720 -18.0709 -18.0705 -18.0694 -18.0674 -18.0660
   -17.0328 -17.0242 -17.0238 -16.3883 -16.3670 -16.3666 -15.3489 -15.3489
   -15.3396 -15.2857 -15.2856 -15.2766 -14.7177 -14.7112 -14.7078 -14.7078
   -14.7069 -14.7025 -14.6127 -14.5581 -14.5577 -14.4426 -14.4337 -14.4333
   -14.2044 -14.2040 -14.1938 -13.0494 -12.9752 -12.9749 -12.6730 -12.6707
   -12.6641 -12.6582 -12.6565 -12.6516 -11.6200 -11.6188 -11.6121 -11.5941
   -11.5932 -11.5857 -11.5605 -11.5570 -11.5469 -11.1911 -11.1907 -11.1599
   -10.7227 -10.7204 -10.7138 -10.7083 -10.6968 -10.6937 -10.6816 -10.5965
   -10.5962 -10.2801 -10.2798 -10.2379  -9.8440  -9.7398  -9.6836  -9.6798
    -9.6743  -9.6387  -9.6350  -9.6296  -9.4637  -9.4634  -9.3780  -8.8777
    -8.8775  -8.7249  -8.6969  -8.6899  -8.6803  -8.6784  -8.6642  -8.6621
    -8.6461  -8.6455  -8.5063  -8.5059  -8.4142  -8.3625  -8.3597  -8.3390
    -8.2986  -8.2866  -8.2838  -8.0069  -8.0067  -7.8136  -7.6889  -7.6816
    -7.6814  -7.6065  -7.6062  -7.5356  -7.4526  -7.4524  -7.4010  -7.3479
    -7.3443  -7.3431  -7.3176  -7.3172  -7.2315  -7.2243  -7.2240  -7.2165
    -7.1675  -7.1674  -7.0742  -7.0700  -7.0616  -7.0611  -6.9931  -6.9929
    -6.8990  -6.8957  -6.8932  -6.8338  -6.8319  -6.6926  -6.6377  -6.5846
    -6.5843  -6.5307  -6.5131  -6.5097  -6.5035  -6.4870  -6.4852  -6.4548
    -6.4523  -6.4313  -6.4090  -6.3096  -6.2832  -6.1811  -6.1805  -6.1711
    -6.1691  -6.0939  -6.0921  -6.0638  -6.0522  -6.0520  -6.0355  -5.9929
    -5.9925  -5.9535  -5.9280  -5.9249  -5.9062  -5.6438  -5.6301  -5.6246
    -5.6221  -5.6169  -5.6140  -5.5145  -5.5140  -5.4117  -5.3888  -5.3882
    -5.3874  -5.3214  -5.3212  -5.2821  -5.2513  -5.2252  -5.2230  -5.2097
    -5.2004  -5.1986  -5.1112  -5.1099  -5.0944  -5.0720  -5.0690  -5.0244
    -5.0214  -5.0174  -4.9066  -4.9062  -4.8924  -4.7537  -4.7534  -4.6473
    -4.4367  -4.4355  -4.3742  -4.3721  -4.3513  -4.3404  -4.2844  -4.2706
    -4.2691  -4.2026  -4.2020  -4.1602  -4.1314  -4.1279  -4.1210  -4.1115
    -4.0854  -4.0798  -3.9536  -3.9506  -3.9368  -3.9241  -3.8761  -3.8722
    -3.8256  -3.8225  -3.7705  -3.7663  -3.7238  -3.7202  -3.7202  -3.6097
    -3.5884  -3.5870  -3.3822  -3.3818  -3.3702  -3.3700  -3.3434  -3.0805
    -3.0805  -3.0272  -3.0079  -2.9862  -2.9861  -2.7723  -2.7712  -2.6973
    -2.6963  -2.5571  -2.5532  -2.4606  -2.4605  -2.4537  -2.4535  -2.3886
    -2.3815  -2.1302  -2.1299  -2.1187  -2.1183  -2.0925  -2.0836  -1.9164
    -1.9162  -1.8893  -1.8891  -1.7384  -1.7378  -1.5239  -1.5236  -1.4538
    -1.2987  -1.2961  -1.2933  -1.2573  -1.2565  -1.2532  -0.6206  -0.6202
    -0.5437

          k = 0.0000 0.0000-1.5660 (154844 PWs)   bands (ev):

   -25.0726 -24.1270 -22.3036 -22.3036 -22.3033 -22.3033 -22.1905 -22.1904
   -20.4560 -20.4557 -20.4556 -20.4554 -20.3942 -20.3938 -19.9222 -19.9219
   -19.9218 -19.9215 -19.8988 -19.8987 -18.6152 -18.6141 -18.6126 -18.6114
   -18.6100 -18.6088 -18.1234 -18.1221 -18.1198 -18.1186 -18.1176 -18.1164
   -17.0140 -17.0139 -17.0133 -16.3764 -16.3760 -16.3737 -15.3442 -15.3442
   -15.3348 -15.2810 -15.2809 -15.2718 -14.7071 -14.7068 -14.7039 -14.7038
   -14.7018 -14.6987 -14.5736 -14.5732 -14.5593 -14.4854 -14.4851 -14.4801
   -14.1963 -14.1959 -14.1891 -13.0132 -13.0128 -12.9842 -12.6806 -12.6758
   -12.6724 -12.6675 -12.6622 -12.6589 -11.6099 -11.6095 -11.5654 -11.5441
   -11.5425 -11.5357 -11.4891 -11.4855 -11.4793 -11.1469 -11.1466 -11.0856
   -10.7542 -10.7527 -10.7479 -10.7286 -10.7265 -10.7218 -10.6074 -10.6071
   -10.5388 -10.2835 -10.2832 -10.2491  -9.8284  -9.6966  -9.6936  -9.6833
    -9.6580  -9.6578  -9.6429  -9.6428  -9.6373  -9.4893  -9.2001  -9.1999
    -8.8260  -8.7693  -8.7682  -8.7661  -8.7649  -8.7459  -8.7313  -8.7258
    -8.6454  -8.6447  -8.4393  -8.3439  -8.3437  -8.1374  -8.1347  -8.1214
    -8.0573  -8.0552  -8.0486  -7.9494  -7.8970  -7.8968  -7.8361  -7.8357
    -7.7712  -7.5895  -7.5056  -7.5052  -7.4472  -7.4452  -7.4444  -7.4069
    -7.3894  -7.3874  -7.3202  -7.3082  -7.2701  -7.2700  -7.2572  -7.1923
    -7.1898  -7.1728  -7.1544  -7.1510  -7.1116  -7.1095  -6.9367  -6.9092
    -6.8573  -6.8570  -6.7579  -6.7556  -6.7225  -6.6351  -6.6331  -6.6291
    -6.5716  -6.5712  -6.5469  -6.5019  -6.4773  -6.4769  -6.4461  -6.4438
    -6.3963  -6.3956  -6.3825  -6.3590  -6.3092  -6.3082  -6.2775  -6.2775
    -6.2587  -6.2583  -6.2273  -6.1812  -6.1751  -6.1746  -6.1020  -6.0871
    -6.0835  -6.0826  -6.0801  -6.0671  -6.0419  -6.0104  -5.9840  -5.9799
    -5.8665  -5.8329  -5.8277  -5.5510  -5.5506  -5.5303  -5.4831  -5.4038
    -5.4032  -5.3722  -5.3710  -5.3113  -5.2906  -5.2894  -5.2833  -5.2362
    -5.1999  -5.1990  -5.1150  -5.1140  -5.0619  -5.0603  -5.0560  -5.0114
    -5.0097  -5.0048  -4.7238  -4.7235  -4.7164  -4.6777  -4.6774  -4.5956
    -4.5057  -4.4102  -4.3848  -4.3839  -4.3622  -4.3619  -4.2615  -4.2613
    -4.2588  -4.1245  -4.1216  -4.1129  -4.0947  -4.0915  -4.0710  -4.0581
    -4.0557  -4.0546  -3.9607  -3.9261  -3.9224  -3.8878  -3.8852  -3.8104
    -3.8058  -3.6765  -3.5917  -3.5591  -3.5587  -3.4189  -3.4172  -3.4091
    -3.4011  -3.3989  -3.3900  -3.3567  -3.3561  -3.2800  -3.2798  -3.0130
    -2.9312  -2.9198  -2.9198  -2.8955  -2.8955  -2.8103  -2.7615  -2.7614
    -2.7237  -2.7234  -2.7098  -2.4375  -2.4330  -2.3958  -2.3957  -2.3887
    -2.3886  -2.1972  -2.1620  -2.1616  -2.1207  -2.0755  -2.0751  -1.9309
    -1.9307  -1.9165  -1.9163  -1.9101  -1.8774  -1.5093  -1.5090  -1.4515
    -1.2927  -1.2907  -1.2825  -1.2580  -1.2562  -1.2511  -0.6000  -0.5818
    -0.5814

     highest occupied level (ev):    -0.5437

!    total energy              =   -2938.08693821 Ry
     estimated scf accuracy    <          7.7E-10 Ry

     The total energy is the sum of the following terms:
     one-electron contribution =   -5751.19484737 Ry
     hartree contribution      =    3070.99514713 Ry
     xc contribution           =    -693.80799073 Ry
     ewald contribution        =    1355.81512057 Ry
     one-center paw contrib.   =    -919.89436781 Ry

     convergence has been achieved in   9 iterations

     negative rho (up, down):  2.544E-07 0.000E+00

     Forces acting on atoms (cartesian axes, Ry/au):

     atom    1 type  1   force =     0.00022087   -0.00015973    0.00017307
     atom    2 type  1   force =     0.00002806    0.00027200    0.00017080
     atom    3 type  1   force =    -0.00025157   -0.00011122    0.00017342
     atom    4 type  1   force =     0.00022153    0.00016030   -0.00017080
     atom    5 type  1   force =    -0.00024876    0.00011141   -0.00017307
     atom    6 type  1   force =     0.00002947   -0.00027348   -0.00017342
     atom    7 type  2   force =    -0.00026402    0.00012989    0.00022678
     atom    8 type  2   force =     0.00001862   -0.00029332    0.00022576
     atom    9 type  2   force =     0.00024603    0.00016237    0.00022742
     atom   10 type  2   force =    -0.00026333   -0.00013054   -0.00022576
     atom   11 type  2   force =     0.00024450   -0.00016371   -0.00022678
     atom   12 type  2   force =     0.00001760    0.00029425   -0.00022742
     atom   13 type  2   force =    -0.00003011    0.00020376   -0.00012246
     atom   14 type  2   force =    -0.00016152   -0.00012920   -0.00012145
     atom   15 type  2   force =     0.00019041   -0.00007447   -0.00011937
     atom   16 type  2   force =    -0.00003113   -0.00020448    0.00012145
     atom   17 type  2   force =     0.00019152    0.00007581    0.00012246
     atom   18 type  2   force =    -0.00015969    0.00012766    0.00011937
     atom   19 type  2   force =    -0.00017189    0.00018296   -0.00003921
     atom   20 type  2   force =    -0.00007386   -0.00024185   -0.00003824
     atom   21 type  2   force =     0.00024534    0.00005399   -0.00003427
     atom   22 type  2   force =    -0.00017252   -0.00018489    0.00003824
     atom   23 type  2   force =     0.00024439   -0.00005738    0.00003921
     atom   24 type  2   force =    -0.00007591    0.00023946    0.00003427
     atom   25 type  3   force =     0.00023958    0.00003323   -0.00019202
     atom   26 type  3   force =    -0.00014840    0.00019132   -0.00019211
     atom   27 type  3   force =    -0.00009120   -0.00022310   -0.00018995
     atom   28 type  3   force =     0.00023988   -0.00003286    0.00019211
     atom   29 type  3   force =    -0.00009101    0.00022409    0.00019202
     atom   30 type  3   force =    -0.00014761   -0.00019053    0.00018995
     atom   31 type  3   force =    -0.00009995   -0.00017707   -0.00014434
     atom   32 type  3   force =     0.00020256    0.00000092   -0.00014477
     atom   33 type  3   force =    -0.00010381    0.00017699   -0.00014507
     atom   34 type  3   force =    -0.00010048    0.00017589    0.00014477
     atom   35 type  3   force =    -0.00010337   -0.00017510    0.00014434
     atom   36 type  3   force =     0.00020518   -0.00000140    0.00014507
     atom   37 type  3   force =    -0.00020644   -0.00001355   -0.00061706
     atom   38 type  3   force =     0.00011454   -0.00017279   -0.00061649
     atom   39 type  3   force =     0.00009179    0.00018657   -0.00061911
     atom   40 type  3   force =    -0.00020691    0.00001280    0.00061649
     atom   41 type  3   force =     0.00009149   -0.00018556    0.00061706
     atom   42 type  3   force =     0.00011568    0.00017278    0.00061911
     atom   43 type  3   force =     0.00001059    0.00005604    0.00020692
     atom   44 type  3   force =    -0.00004265   -0.00002275    0.00020946
     atom   45 type  3   force =     0.00004251   -0.00002600    0.00020580
     atom   46 type  3   force =     0.00000163   -0.00004831   -0.00020946
     atom   47 type  3   force =     0.00004324    0.00003719   -0.00020692
     atom   48 type  3   force =    -0.00004377    0.00002381   -0.00020580
     atom   49 type  3   force =     0.00027816   -0.00009294    0.00025621
     atom   50 type  3   force =    -0.00004533    0.00027409    0.00025420
     atom   51 type  3   force =    -0.00021093   -0.00016627    0.00025867
     atom   52 type  3   force =     0.00026003    0.00009779   -0.00025420
     atom   53 type  3   force =    -0.00021957    0.00019443   -0.00025621
     atom   54 type  3   force =    -0.00003853   -0.00026581   -0.00025867
     atom   55 type  3   force =     0.00002163    0.00030415    0.00016269
     atom   56 type  3   force =    -0.00026220   -0.00015149    0.00016235
     atom   57 type  3   force =     0.00025490   -0.00013536    0.00016449
     atom   58 type  3   force =    -0.00000009   -0.00030282   -0.00016235
     atom   59 type  3   force =     0.00025258    0.00017081   -0.00016269
     atom   60 type  3   force =    -0.00024468    0.00015307   -0.00016449
     atom   61 type  3   force =     0.00020560   -0.00069530   -0.00033214
     atom   62 type  3   force =     0.00051547    0.00051851   -0.00031564
     atom   63 type  3   force =    -0.00070185    0.00019111   -0.00032905
     atom   64 type  3   force =     0.00019131    0.00070567    0.00031564
     atom   65 type  3   force =    -0.00070495   -0.00016960    0.00033214
     atom   66 type  3   force =     0.00051643   -0.00051226    0.00032905
     atom   67 type  3   force =     0.00020957   -0.00010254   -0.00025124
     atom   68 type  3   force =    -0.00000271    0.00022001   -0.00025945
     atom   69 type  3   force =    -0.00019957   -0.00011299   -0.00025603
     atom   70 type  3   force =     0.00019189    0.00010766    0.00025945
     atom   71 type  3   force =    -0.00019359    0.00013022    0.00025124
     atom   72 type  3   force =     0.00000193   -0.00022933    0.00025603
     atom   73 type  3   force =    -0.00006693    0.00059407    0.00038545
     atom   74 type  3   force =    -0.00045179   -0.00036246    0.00039324
     atom   75 type  3   force =     0.00054173   -0.00020527    0.00038139
     atom   76 type  3   force =    -0.00008801   -0.00057249   -0.00039324
     atom   77 type  3   force =     0.00054794    0.00023907   -0.00038545
     atom   78 type  3   force =    -0.00044863    0.00036652   -0.00038139
     atom   79 type  3   force =     0.00031546    0.00022784    0.00008378
     atom   80 type  3   force =    -0.00034596    0.00013566    0.00007911
     atom   81 type  3   force =     0.00004208   -0.00035322    0.00007807
     atom   82 type  3   force =     0.00029046   -0.00023178   -0.00007911
     atom   83 type  3   force =     0.00003958    0.00038712   -0.00008378
     atom   84 type  3   force =    -0.00032694   -0.00014017   -0.00007807
     atom   85 type  3   force =    -0.00013457    0.00016623   -0.00034543
     atom   86 type  3   force =    -0.00005069   -0.00019410   -0.00035805
     atom   87 type  3   force =     0.00018369    0.00004533   -0.00036189
     atom   88 type  3   force =    -0.00014275   -0.00014095    0.00035805
     atom   89 type  3   force =     0.00021124   -0.00003343    0.00034543
     atom   90 type  3   force =    -0.00005259    0.00018175    0.00036189
     atom   91 type  3   force =     0.00005613    0.00001224   -0.00034980
     atom   92 type  3   force =    -0.00002400    0.00004538   -0.00033445
     atom   93 type  3   force =    -0.00003363   -0.00004910   -0.00034209
     atom   94 type  3   force =     0.00005130    0.00000191    0.00033445
     atom   95 type  3   force =    -0.00001746    0.00005473    0.00034980
     atom   96 type  3   force =    -0.00002571   -0.00005367    0.00034209
     atom   97 type  3   force =    -0.00001960   -0.00015825   -0.00020294
     atom   98 type  3   force =     0.00015312    0.00006116   -0.00018389
     atom   99 type  3   force =    -0.00012264    0.00010359   -0.00018936
     atom  100 type  3   force =    -0.00002360    0.00016319    0.00018389
     atom  101 type  3   force =    -0.00012725   -0.00009610    0.00020294
     atom  102 type  3   force =     0.00015103   -0.00005442    0.00018936
     atom  103 type  3   force =     0.00012440    0.00019382   -0.00004250
     atom  104 type  3   force =    -0.00021649   -0.00000680   -0.00003105
     atom  105 type  3   force =     0.00011437   -0.00018218   -0.00003645
     atom  106 type  3   force =     0.00010235   -0.00019088    0.00003105
     atom  107 type  3   force =     0.00010565    0.00020464    0.00004250
     atom  108 type  3   force =    -0.00021495    0.00000795    0.00003645
     atom  109 type  3   force =    -0.00001721    0.00020297    0.00025258
     atom  110 type  3   force =    -0.00014356   -0.00012316    0.00025100
     atom  111 type  3   force =     0.00018028   -0.00006083    0.00024922
     atom  112 type  3   force =    -0.00003488   -0.00018591   -0.00025100
     atom  113 type  3   force =     0.00018438    0.00008659   -0.00025258
     atom  114 type  3   force =    -0.00014283    0.00012571   -0.00024922
     atom  115 type  3   force =    -0.00002234   -0.00002049   -0.00016588
     atom  116 type  3   force =     0.00003304   -0.00001354   -0.00016244
     atom  117 type  3   force =    -0.00000470    0.00003191   -0.00016671
     atom  118 type  3   force =    -0.00002825    0.00002184    0.00016244
     atom  119 type  3   force =    -0.00000658   -0.00002959    0.00016588
     atom  120 type  3   force =     0.00002998    0.00001189    0.00016671
     atom  121 type  3   force =    -0.00010357   -0.00025622    0.00009954
     atom  122 type  3   force =     0.00027730    0.00003482    0.00010035
     atom  123 type  3   force =    -0.00016818    0.00022111    0.00009666
     atom  124 type  3   force =    -0.00010850    0.00025756   -0.00010035
     atom  125 type  3   force =    -0.00017010   -0.00021781   -0.00009954
     atom  126 type  3   force =     0.00027557   -0.00003510   -0.00009666
     atom  127 type  4   force =     0.00006744    0.00004009    0.00019120
     atom  128 type  4   force =    -0.00006773    0.00003895    0.00019147
     atom  129 type  4   force =     0.00000161   -0.00007928    0.00018775
     atom  130 type  4   force =     0.00006760   -0.00003918   -0.00019147
     atom  131 type  4   force =     0.00000100    0.00007845   -0.00019120
     atom  132 type  4   force =    -0.00006946   -0.00003824   -0.00018775
     atom  133 type  4   force =    -0.00003964   -0.00017585    0.00005050
     atom  134 type  4   force =     0.00017159    0.00005128    0.00004960
     atom  135 type  4   force =    -0.00013403    0.00012380    0.00005400
     atom  136 type  4   force =    -0.00004138    0.00017424   -0.00004960
     atom  137 type  4   force =    -0.00013247   -0.00012225   -0.00005050
     atom  138 type  4   force =     0.00017423   -0.00005418   -0.00005400
     atom  139 type  4   force =     0.00048412    0.00057268    0.00039375
     atom  140 type  4   force =    -0.00073441    0.00013217    0.00039270
     atom  141 type  4   force =     0.00025269   -0.00070673    0.00038796
     atom  142 type  4   force =     0.00048167   -0.00056993   -0.00039270
     atom  143 type  4   force =     0.00025390    0.00070560   -0.00039375
     atom  144 type  4   force =    -0.00073839   -0.00013453   -0.00038796
     atom  145 type  4   force =    -0.00006628   -0.00030942   -0.00049201
     atom  146 type  4   force =     0.00030068    0.00009644   -0.00049187
     atom  147 type  4   force =    -0.00023301    0.00021394   -0.00048805
     atom  148 type  4   force =    -0.00006682    0.00030861    0.00049187
     atom  149 type  4   force =    -0.00023483   -0.00021211    0.00049201
     atom  150 type  4   force =     0.00030178   -0.00009483    0.00048805
     atom  151 type  4   force =    -0.00006093    0.00106678   -0.00006601
     atom  152 type  4   force =    -0.00088962   -0.00058544   -0.00006585
     atom  153 type  4   force =     0.00095530   -0.00048024   -0.00007078
     atom  154 type  4   force =    -0.00006220   -0.00106315    0.00006585
     atom  155 type  4   force =     0.00095432    0.00048062    0.00006601
     atom  156 type  4   force =    -0.00089355    0.00058720    0.00007078
     atom  157 type  4   force =    -0.00020011   -0.00057891    0.00009279
     atom  158 type  4   force =     0.00059921    0.00011352    0.00009074
     atom  159 type  4   force =    -0.00040114    0.00046415    0.00009622
     atom  160 type  4   force =    -0.00020129    0.00057569   -0.00009074
     atom  161 type  4   force =    -0.00040129   -0.00046276   -0.00009279
     atom  162 type  4   force =     0.00060254   -0.00011532   -0.00009622
     atom  163 type  4   force =    -0.00008976   -0.00015784    0.00005339
     atom  164 type  4   force =     0.00018073    0.00000225    0.00005582
     atom  165 type  4   force =    -0.00008743    0.00015294    0.00004960
     atom  166 type  4   force =    -0.00008842    0.00015764   -0.00005582
     atom  167 type  4   force =    -0.00009182   -0.00015665   -0.00005339
     atom  168 type  4   force =     0.00017616    0.00000076   -0.00004960
     atom  169 type  4   force =     0.00011452    0.00015450    0.00031889
     atom  170 type  4   force =    -0.00018204    0.00002047    0.00031937
     atom  171 type  4   force =     0.00007247   -0.00016300    0.00031593
     atom  172 type  4   force =     0.00010874   -0.00014742   -0.00031937
     atom  173 type  4   force =     0.00007654    0.00017642   -0.00031889
     atom  174 type  4   force =    -0.00017739   -0.00001874   -0.00031593
     atom  175 type  4   force =     0.00002525    0.00030730    0.00036793
     atom  176 type  4   force =    -0.00026596   -0.00013975    0.00037404
     atom  177 type  4   force =     0.00024997   -0.00015947    0.00037624
     atom  178 type  4   force =     0.00001195   -0.00030020   -0.00037404
     atom  179 type  4   force =     0.00025350    0.00017552   -0.00036793
     atom  180 type  4   force =    -0.00026309    0.00013674   -0.00037624
     atom  181 type  4   force =    -0.00002795    0.00007315   -0.00024186
     atom  182 type  4   force =    -0.00002566   -0.00007931   -0.00024359
     atom  183 type  4   force =     0.00007234    0.00000364   -0.00023519
     atom  184 type  4   force =    -0.00005585   -0.00006188    0.00024359
     atom  185 type  4   force =     0.00007732    0.00001237    0.00024186
     atom  186 type  4   force =    -0.00003302    0.00006447    0.00023519
     atom  187 type  4   force =     0.00020978   -0.00011410   -0.00026638
     atom  188 type  4   force =     0.00000222    0.00023721   -0.00027560
     atom  189 type  4   force =    -0.00021009   -0.00011334   -0.00027241
     atom  190 type  4   force =     0.00020432    0.00012053    0.00027560
     atom  191 type  4   force =    -0.00020371    0.00012463    0.00026638
     atom  192 type  4   force =     0.00000689   -0.00023861    0.00027241
     atom  193 type  4   force =     0.00005414   -0.00003803   -0.00004413
     atom  194 type  4   force =    -0.00000391    0.00005788   -0.00004825
     atom  195 type  4   force =    -0.00006709    0.00000037   -0.00004417
     atom  196 type  4   force =     0.00005208    0.00002555    0.00004825
     atom  197 type  4   force =    -0.00006001    0.00002787    0.00004413
     atom  198 type  4   force =     0.00003387   -0.00005792    0.00004417
     atom  199 type  4   force =     0.00012563    0.00013479    0.00001097
     atom  200 type  4   force =    -0.00017111    0.00004023    0.00000605
     atom  201 type  4   force =     0.00005294   -0.00016299    0.00000901
     atom  202 type  4   force =     0.00012039   -0.00012807   -0.00000605
     atom  203 type  4   force =     0.00005391    0.00017619   -0.00001097
     atom  204 type  4   force =    -0.00016763   -0.00003565   -0.00000901
     atom  205 type  5   force =     0.00020094    0.00000732    0.00003966
     atom  206 type  5   force =    -0.00009085    0.00016930    0.00003933
     atom  207 type  5   force =    -0.00010284   -0.00015658    0.00003843
     atom  208 type  5   force =     0.00019204    0.00000597   -0.00003933
     atom  209 type  5   force =    -0.00009413    0.00017768   -0.00003966
     atom  210 type  5   force =    -0.00008418   -0.00016735   -0.00003843
     atom  211 type  5   force =     0.00004349    0.00000781   -0.00017782
     atom  212 type  5   force =    -0.00002498    0.00003120   -0.00017843
     atom  213 type  5   force =    -0.00001392   -0.00003292   -0.00017624
     atom  214 type  5   force =     0.00003951   -0.00000603    0.00017843
     atom  215 type  5   force =    -0.00001499    0.00004157    0.00017782
     atom  216 type  5   force =    -0.00002155   -0.00002852    0.00017624
     atom  217 type  4   force =    -0.00009759   -0.00016903    0.00000000
     atom  218 type  2   force =    -0.00012402   -0.00016465    0.00143384
     atom  219 type  2   force =    -0.00008058   -0.00018973   -0.00143384

     Total force =     0.006631     Total SCF correction =     0.000071
     Energy error            =      6.7E-05 Ry
     Gradient error          =      1.4E-03 Ry/Bohr

     number of scf cycles    =  10
     number of bfgs steps    =   9

     energy             old  =   -2938.0868716312 Ry
     energy             new  =   -2938.0869382083 Ry

     CASE: energy            _new < energy            _old

     new trust radius        =       0.0052072215 bohr
     new conv_thr            =       0.0000000010 Ry


ATOMIC_POSITIONS (angstrom)
Mg              10.2304169633        5.4276864703        5.8284375426
Mg              12.1378950271        6.1460026342        1.1555907192
Mg              10.5621200346        7.4388501114        3.4920562570
Mg              -0.7463531006       13.5847267589        5.8536692808
Mg              -0.4146941146       11.5736442166        1.1808224574
Mg               1.1611731541       12.8664893234        3.5172037430
O               11.4505971298        4.4591872299        0.1797632116
O               12.3666226416        7.6868593112        2.5161980049
O                9.1133144414        6.8663329490        4.8526029310
O                0.4737041181       14.5532390222        4.4930619951
O               -1.8635291436       12.1461016179        6.8294967884
O                1.3897615440       11.3255282934        2.1566570690
O               10.8136442036        5.4825037234        2.6543537411
O               11.7988930545        6.6235900278        4.9907444327
O               10.3180041497        6.9062976925        0.3179026848
O               -0.1632492988       13.5299361356        2.0185155673
O               -0.6588346009       12.1061424495        4.3549062589
O                0.8220271730       12.3888025562        6.6913573152
O               10.2302118095        4.0561056959        4.2803706766
O               13.3258727729        6.8315637080        6.6167905065
O                9.3743739343        8.1246648348        1.9439677735
O               -0.7466286677       14.9563262029        0.3924694935
O               -1.6024153316       10.8876761611        2.7288893234
O                2.3489791771       12.1807783891        5.0652922265
H               10.5737606640        1.7581881483        3.7784159931
H               15.1441556134        8.2780558754        6.1148396769
H                7.2126010110        8.9762123062        1.4419922052
H               -0.4030711247       17.2542514178        0.8944203231
H               -3.7642447310       10.0362394227        3.2308440069
H                4.1673273815       10.7344018560        5.5672677948
H                0.8051567682       18.9796438730        0.0615558338
H               -5.8625983059       10.2198816100        2.3979655492
H                5.0574633069        8.8253604751        4.7343862739
H               11.7819762509        0.0327817399        4.6112944508
H               16.0342753647       10.1871081517        6.9477041662
H                5.1142547156        8.7925719400        2.2748737261
H               11.8749010075        2.2090605139        6.0397562836
H               14.1030975975        9.1794397743        1.3669174658
H                6.9524999000        7.6239523649        3.7033305056
H                0.8980792383       16.8033606786        5.6423425342
H               -4.0243479802       11.3884961970        0.9695037164
H                3.1262864753        9.8330177156        3.3059294944
H                2.7218183560       15.5484152229        1.4797353359
H               -3.8493854536       13.5954103692        3.8161683620
H                1.1275567475        8.8810748929        6.1525532573
H               13.6986634814        3.4640395928        3.1930916380
H               12.1044133936       10.1313714522        5.5295246641
H                7.1274580965        5.4170302339        0.8567067427
H                3.6223377365       14.1487492891        5.8994365894
H               -3.0874081758       15.0749307679        1.2266252332
H               -0.5346677787        8.8011806776        3.5629136348
H               14.5989770932        4.8636914720        5.7826347668
H               10.4420074479       10.2114111455        1.1098234106
H                7.8893799395        3.9375544599        3.4463463652
H                6.0027315114       13.6406211241        5.6328511092
H               -3.8375140502       17.3905685795        0.9599941192
H               -2.1651014752        6.9936354378        3.2963754334
H               16.9794312012        5.3718996349        6.0492658808
H                8.8117586612       12.0188285431        1.3764088908
H                7.1392166916        1.6217848395        3.7128845666
H                5.4007227576       14.9013423370        4.5350851407
H               -4.6285612563       16.2389492730        6.8715536371
H               -0.7722482027        6.8845640307        2.1986548621
H               16.3776232293        4.1110230056        0.1377063629
H               10.2045796356       12.1278342754        2.4741748593
H                6.3483314459        2.7734954538        4.8106051379
H                5.0338894679       16.4305492311        1.3675077285
H               -5.7692459289       15.1566202494        3.7039676562
H                0.7353898469        6.4377574513        6.0404121121
H               16.0106411360        2.5819965895        3.3052923438
H               11.7123282983       12.5747507745        5.6417522715
H                5.2075665728        3.8557450148        0.9688478879
H                5.5986719122       15.1481239065        2.4501433677
H               -4.9412479378       16.2869800005        4.7865873850
H               -0.6575454989        6.5896941834        0.1137021828
H               16.5755624002        3.8642437596        2.2226726150
H               10.3193241666       12.4226540566        4.5591166323
H                6.0356153155        2.7253959854        6.8955578172
H                7.2697543004       14.4023976838        0.8067331436
H               -5.1306660879       18.1069779246        3.1432788171
H               -2.1390081114        5.5159413955        5.4795573439
H               18.2464359124        4.6102017919        3.8659811829
H                8.8379651194       13.4969907452        6.2025268564
H                5.8464494300        0.9055353344        1.5297026561
H                7.5001508465       16.1228306596        1.1050618616
H               -6.7350072799       17.4456981360        3.4430255242
H               -0.7643620138        4.4569549544        5.7794214138
H               18.4759214126        2.8901616689        3.5662344758
H               10.2127055089       14.5567364951        5.9041981384
H                4.2420172209        1.5665205555        1.2298385862
H                6.2554356583       16.6759206081        6.0191081049
H               -6.5922735329       16.0916964761        1.3457400218
H                0.3372029663        5.2578078226        3.6823597483
H               17.2319547047        2.3367718898        5.6635199782
H               11.3140530490       13.7553264959        0.9901518951
H                4.3847936596        2.9209302463        3.3269002517
H                7.5689102199       15.5569775107        5.6338771041
H               -6.2798180815       17.7882816838        0.9601851815
H               -1.2888211740        4.6802987458        3.2965113673
H               18.5450128687        3.4556588521        6.0490748185
H                9.6882826204       14.3333572847        1.3753828959
H                4.6976681982        1.2239974953        3.7127486327
H                2.3365091070       13.9814772153        0.7864993105
H               -2.2996848999       14.0451639441        3.1229271794
H               -0.0367616585        9.9983152069        5.4593116585
H               13.3133112258        5.0309964280        3.8863328206
H               10.9400598973        9.0142148504        6.2227606895
H                8.6771757934        4.9673210732        1.5499483415
H                4.8342071379       13.4136037996        0.8741755068
H               -3.0567187153       16.4921718478        3.2106095643
H               -1.7774372980        8.1192014559        5.5469587055
H               15.8109991414        5.5988898642        3.7986504357
H                9.1994180778       10.8933480884        6.1350844932
H                7.9201533682        2.5202948743        1.4623012945
H                3.6977485435       13.1534109925        2.8517070573
H               -2.2631556918       15.6380317031        5.1881879953
H               -1.4345191253        9.2334182668        0.5152915201
H               14.6745105660        5.8590655297        1.8210720047
H                9.5423137942        9.7790496718        4.1575529427
H                8.7136343456        3.3743791287        6.4939684799
H                3.2879639459       14.6021750844        3.4772257145
H               -3.3129803633       14.5587800411        5.8136893297
H                0.0250711597        8.8639178080        1.1407675402
H               14.2647635454        4.4102648637        1.1955706703
H               11.0018726007       10.1485478460        3.5320342855
H                7.6638424189        4.4536711652        5.8684924598
C               11.3184394236        3.2783411632        0.8022221462
C               13.4553414287        8.1628490868        3.1386379490
C                8.1567402964        7.5712166920        5.4750614993
C                0.3415639622       15.7340920373        3.8706220510
C               -2.8200929821       11.4412266536        6.2070378538
C                2.4784958447       10.8495526548        1.5341985007
C               10.9493190626        3.1273596949        2.1854883167
C               13.7706615856        7.9186780152        4.5219018916
C                8.2105398822        7.9663659249        6.8583262940
C               -0.0275544673       15.8850817675        2.4873581084
C               -2.7662865888       11.0460683097        4.8237716833
C                2.7938053256       11.0937190792        0.1509337060
C               10.8727330338        1.8304819364        2.7403495626
C               14.9320693134        8.5008117074        5.0767686020
C                7.1257093594        8.6811327019        0.4039312652
C               -0.1041157653       17.1819572102        1.9324913980
C               -3.8511226587       10.3313039841        4.2689104374
C                3.9552267738       10.5116116761        6.6053287348
C               11.1660942230        0.6707936263        2.0162139589
C               15.7897001246        9.3347157714        4.3526270725
C                5.9747153153        9.0069200687        6.6890528994
C                0.1892509328       18.3416393117        2.6566329275
C               -5.0021227904       10.0055180714        4.9930460411
C                4.8128639318        9.6777152777        0.3202071006
C               11.5165516282        0.8361664858        0.6534451536
C               15.4712536311        9.5555238120        2.9898566361
C                5.9427134467        8.6207407168        5.3262823722
C                0.5396995521       18.1762605789        4.0194033639
C               -5.0341343956       10.3917095170        6.3558148464
C                4.4944237369        9.4569111706        1.6829776278
C               11.5772870414        2.0917711360        0.0666357153
C               14.3535000684        8.9803175584        2.4030452747
C                6.9997271629        7.9403332433        4.7394730638
C                0.6004331055       16.9206544716        4.6062147253
C               -3.9771165780       11.0721102528        6.9426242847
C                3.3766667218       10.0321081643        2.2697869362
C               10.6488322193        4.2774052315        3.0903225689
C               12.9249309196        7.0834342291        5.4267332977
C                9.3567359209        7.6515563829        0.7539038236
C               -0.3280314714       14.7350356331        1.5825267023
C               -1.6200745168       11.3608618384        3.9189374311
C                1.9480742457       11.9289491954        6.2553561764
C                4.4478451877       14.4484583313        0.7488462869
C               -3.7596502844       15.6400846181        3.0852616903
C               -0.6880440549        7.9364593168        5.4216854232
C               15.4245357388        4.5640896534        3.9239983097
C               10.2888093666       11.0761760903        6.2604137131
C                7.2171974119        3.3723660280        1.5875745768
C                5.5908149306       14.6684206189        5.5855604704
C               -4.5216146729       16.5198984767        0.9127583698
C               -1.0690057244        6.8367389405        3.2491111014
C               16.5674590853        4.3441160655        6.0965016302
C                9.9078174241       12.1759980671        1.4236995296
C                6.4552924637        2.4925833561        3.7601488986
C                6.6192048048       15.6532698635        6.1692144986
C               -5.8887156038       16.9181496088        1.4962389976
C               -0.7303747853        5.4537647415        3.8328401116
C               17.5959051481        3.3592974958        5.5130210024
C               10.2465269517       13.5590344455        0.8400455014
C                5.0882862051        2.0943592524        3.1764198884
C                5.4565161591       15.4182381198        1.3992463028
C               -5.1037543451       16.0286631573        3.7357385582
C               -0.3525676509        6.5781440388        6.0720968641
C               16.4331066555        3.5943506612        3.2735214418
C               10.6243278139       12.4346006698        5.6100136972
C                5.8731236728        2.9837394772        0.9371631359
C                6.8134159225       15.3905739685        0.6675190765
C               -5.7579596806       17.2175313815        3.0038243805
C               -1.0550643903        5.4169969212        5.3404321346
C               17.7897994071        3.6222263334        4.0054356195
C                9.9219200742       13.5958782596        6.3417409235
C                5.2187891412        1.7947858959        1.6688278654
C                3.0579568947       14.5111979057        1.4080173499
C               -3.1191253825       14.4050629482        3.7444994474
C                0.0612541163        9.1086866337        6.0808488229
C               14.0347131476        4.5012896553        3.2647605526
C               11.0380875784        9.9038673074        5.6012426501
C                7.8577269618        4.6073909377        0.9284111771
N                4.3075520507       14.7775921443        6.3195159118
N               -3.9745820243       15.3539986871        1.6466970165
N               -0.3328342059        7.8933531500        3.9830624886
N               15.2842439248        4.2349103411        5.3625629835
N               10.6439941785       11.1192455762        0.6897440882
N                7.0022614519        3.6584336973        3.0261975114
N                3.0082400870       13.9073626812        2.7840967693
N               -2.5713912978       14.6639437219        5.1205640337
N               -0.4368271064        9.4535772357        0.4476687440
N               13.9850434317        5.1050816739        1.8886959663
N               10.5400093381        9.5588936767        4.2251632307
N                8.4054515960        4.3484852466        6.5615912560
C               10.7031683211       18.5384313342        3.5046300000
O               10.7028531021       18.5385576475        2.3311277071
O               10.7034353212       18.5382215032        4.6781322929



     Writing config-only to output data dir ./tmp/c_MOF_CO2_free.save/ :
     XML data file
     NEW-OLD atomic charge density approx. for the potential

     Check: negative core charge=   -0.000001

     negative rho (up, down):  2.396E-07 0.000E+00

     total cpu time spent up to now is     8334.8 secs

     per-process dynamical memory:   382.8 Mb

     Self-consistent Calculation

     iteration #  1     ecut=    60.00 Ry     beta= 0.30
     Davidson diagonalization with overlap
     ethr =  1.00E-06,  avg # of iterations =  2.0

     Threshold (ethr) on eigenvalues was too large:
     Diagonalizing with lowered threshold

     Davidson diagonalization with overlap
     ethr =  6.99E-09,  avg # of iterations =  5.0

     negative rho (up, down):  2.433E-07 0.000E+00

     total cpu time spent up to now is     8503.0 secs

     total energy              =   -2938.08699166 Ry
     estimated scf accuracy    <       0.00005952 Ry

     iteration #  2     ecut=    60.00 Ry     beta= 0.30
     Davidson diagonalization with overlap
     ethr =  9.76E-09,  avg # of iterations =  1.0

     negative rho (up, down):  2.494E-07 0.000E+00

     total cpu time spent up to now is     8561.6 secs

     total energy              =   -2938.08699237 Ry
     estimated scf accuracy    <       0.00002415 Ry

     iteration #  3     ecut=    60.00 Ry     beta= 0.30
     Davidson diagonalization with overlap
     ethr =  3.96E-09,  avg # of iterations =  2.0

     negative rho (up, down):  2.510E-07 0.000E+00

     total cpu time spent up to now is     8637.7 secs

     total energy              =   -2938.08699549 Ry
     estimated scf accuracy    <       0.00000201 Ry

     iteration #  4     ecut=    60.00 Ry     beta= 0.30
     Davidson diagonalization with overlap
     ethr =  3.29E-10,  avg # of iterations =  2.0

     negative rho (up, down):  2.521E-07 0.000E+00

     total cpu time spent up to now is     8718.9 secs

     total energy              =   -2938.08699605 Ry
     estimated scf accuracy    <       0.00000037 Ry

     iteration #  5     ecut=    60.00 Ry     beta= 0.30
     Davidson diagonalization with overlap
     ethr =  6.11E-11,  avg # of iterations =  3.0

     negative rho (up, down):  2.525E-07 0.000E+00

     total cpu time spent up to now is     8785.4 secs

     total energy              =   -2938.08699609 Ry
     estimated scf accuracy    <       0.00000008 Ry

     iteration #  6     ecut=    60.00 Ry     beta= 0.30
     Davidson diagonalization with overlap
     ethr =  1.33E-11,  avg # of iterations =  7.5

     negative rho (up, down):  2.526E-07 0.000E+00

     total cpu time spent up to now is     8893.8 secs

     total energy              =   -2938.08699610 Ry
     estimated scf accuracy    <       0.00000011 Ry

     iteration #  7     ecut=    60.00 Ry     beta= 0.30
     Davidson diagonalization with overlap
     ethr =  1.33E-11,  avg # of iterations =  5.0

     negative rho (up, down):  2.527E-07 0.000E+00

     total cpu time spent up to now is     8975.2 secs

     total energy              =   -2938.08699613 Ry
     estimated scf accuracy    <          6.4E-09 Ry

     iteration #  8     ecut=    60.00 Ry     beta= 0.30
     Davidson diagonalization with overlap
     ethr =  1.05E-12,  avg # of iterations =  7.0

     negative rho (up, down):  2.528E-07 0.000E+00

     total cpu time spent up to now is     9086.2 secs

     total energy              =   -2938.08699613 Ry
     estimated scf accuracy    <          3.9E-09 Ry

     iteration #  9     ecut=    60.00 Ry     beta= 0.30
     Davidson diagonalization with overlap
     ethr =  6.44E-13,  avg # of iterations =  2.0

     negative rho (up, down):  2.528E-07 0.000E+00

     total cpu time spent up to now is     9150.3 secs

     total energy              =   -2938.08699614 Ry
     estimated scf accuracy    <          1.4E-09 Ry

     iteration # 10     ecut=    60.00 Ry     beta= 0.30
     Davidson diagonalization with overlap
     ethr =  2.25E-13,  avg # of iterations =  5.0

     negative rho (up, down):  2.529E-07 0.000E+00

     total cpu time spent up to now is     9241.4 secs

     End of self-consistent calculation

          k = 0.0000 0.0000 0.0000 (154911 PWs)   bands (ev):

   -25.0755 -24.1297 -22.3641 -22.3641 -22.2223 -22.2223 -22.2220 -22.2220
   -20.4264 -20.4260 -20.4113 -20.4109 -20.4108 -20.4104 -19.9446 -19.9442
   -19.9279 -19.9277 -19.9275 -19.9274 -18.6509 -18.6500 -18.6494 -18.6485
   -18.6462 -18.6451 -18.0718 -18.0706 -18.0703 -18.0691 -18.0672 -18.0658
   -17.0316 -17.0230 -17.0225 -16.3879 -16.3666 -16.3662 -15.3477 -15.3477
   -15.3383 -15.2844 -15.2843 -15.2752 -14.7164 -14.7099 -14.7065 -14.7065
   -14.7055 -14.7011 -14.6120 -14.5574 -14.5570 -14.4435 -14.4345 -14.4341
   -14.2047 -14.2043 -14.1942 -13.0474 -12.9732 -12.9728 -12.6725 -12.6702
   -12.6636 -12.6577 -12.6560 -12.6511 -11.6176 -11.6164 -11.6098 -11.5924
   -11.5916 -11.5840 -11.5581 -11.5546 -11.5447 -11.1895 -11.1891 -11.1583
   -10.7229 -10.7205 -10.7140 -10.7092 -10.6970 -10.6939 -10.6819 -10.5978
   -10.5974 -10.2808 -10.2804 -10.2383  -9.8421  -9.7398  -9.6830  -9.6792
    -9.6736  -9.6380  -9.6342  -9.6288  -9.4633  -9.4630  -9.3788  -8.8780
    -8.8777  -8.7244  -8.6963  -8.6893  -8.6797  -8.6778  -8.6636  -8.6615
    -8.6480  -8.6473  -8.5069  -8.5066  -8.4140  -8.3614  -8.3586  -8.3386
    -8.2975  -8.2855  -8.2827  -8.0077  -8.0075  -7.8141  -7.6888  -7.6813
    -7.6811  -7.6061  -7.6058  -7.5363  -7.4535  -7.4534  -7.3999  -7.3467
    -7.3431  -7.3419  -7.3164  -7.3160  -7.2314  -7.2250  -7.2247  -7.2157
    -7.1681  -7.1681  -7.0751  -7.0707  -7.0610  -7.0606  -6.9930  -6.9928
    -6.8986  -6.8951  -6.8926  -6.8334  -6.8315  -6.6918  -6.6379  -6.5841
    -6.5838  -6.5293  -6.5125  -6.5091  -6.5033  -6.4871  -6.4854  -6.4545
    -6.4518  -6.4301  -6.4079  -6.3099  -6.2834  -6.1806  -6.1801  -6.1714
    -6.1693  -6.0935  -6.0916  -6.0650  -6.0532  -6.0530  -6.0350  -5.9933
    -5.9929  -5.9542  -5.9276  -5.9245  -5.9063  -5.6436  -5.6297  -5.6250
    -5.6224  -5.6171  -5.6141  -5.5150  -5.5144  -5.4123  -5.3891  -5.3888
    -5.3879  -5.3216  -5.3213  -5.2817  -5.2511  -5.2242  -5.2220  -5.2097
    -5.1996  -5.1978  -5.1109  -5.1096  -5.0940  -5.0719  -5.0689  -5.0238
    -5.0207  -5.0168  -4.9066  -4.9062  -4.8919  -4.7521  -4.7517  -4.6452
    -4.4369  -4.4357  -4.3745  -4.3723  -4.3511  -4.3406  -4.2855  -4.2710
    -4.2695  -4.2043  -4.2036  -4.1613  -4.1313  -4.1280  -4.1211  -4.1111
    -4.0849  -4.0794  -3.9534  -3.9504  -3.9364  -3.9234  -3.8756  -3.8718
    -3.8261  -3.8230  -3.7707  -3.7667  -3.7246  -3.7208  -3.7202  -3.6113
    -3.5894  -3.5879  -3.3848  -3.3844  -3.3722  -3.3719  -3.3441  -3.0813
    -3.0812  -3.0270  -3.0076  -2.9866  -2.9866  -2.7725  -2.7713  -2.6977
    -2.6966  -2.5572  -2.5530  -2.4593  -2.4592  -2.4524  -2.4522  -2.3899
    -2.3827  -2.1310  -2.1306  -2.1196  -2.1193  -2.0934  -2.0846  -1.9189
    -1.9187  -1.8915  -1.8912  -1.7400  -1.7392  -1.5239  -1.5235  -1.4539
    -1.2985  -1.2959  -1.2931  -1.2571  -1.2562  -1.2529  -0.6192  -0.6188
    -0.5424

          k = 0.0000 0.0000-1.5660 (154844 PWs)   bands (ev):

   -25.0754 -24.1299 -22.3047 -22.3047 -22.3044 -22.3043 -22.1912 -22.1911
   -20.4584 -20.4581 -20.4580 -20.4577 -20.3970 -20.3965 -19.9229 -19.9226
   -19.9225 -19.9222 -19.8993 -19.8992 -18.6147 -18.6135 -18.6120 -18.6109
   -18.6094 -18.6082 -18.1231 -18.1218 -18.1196 -18.1183 -18.1173 -18.1160
   -17.0128 -17.0126 -17.0120 -16.3760 -16.3757 -16.3733 -15.3429 -15.3429
   -15.3335 -15.2796 -15.2796 -15.2705 -14.7058 -14.7055 -14.7026 -14.7025
   -14.7005 -14.6974 -14.5729 -14.5725 -14.5586 -14.4862 -14.4858 -14.4809
   -14.1967 -14.1964 -14.1896 -13.0112 -13.0108 -12.9822 -12.6801 -12.6754
   -12.6719 -12.6670 -12.6617 -12.6583 -11.6083 -11.6078 -11.5636 -11.5419
   -11.5402 -11.5336 -11.4869 -11.4832 -11.4771 -11.1454 -11.1451 -11.0839
   -10.7541 -10.7526 -10.7478 -10.7286 -10.7264 -10.7217 -10.6086 -10.6082
   -10.5399 -10.2839 -10.2835 -10.2493  -9.8266  -9.6960  -9.6930  -9.6826
    -9.6575  -9.6573  -9.6422  -9.6420  -9.6365  -9.4886  -9.2009  -9.2006
    -8.8257  -8.7688  -8.7676  -8.7656  -8.7643  -8.7454  -8.7308  -8.7254
    -8.6473  -8.6467  -8.4395  -8.3443  -8.3441  -8.1359  -8.1332  -8.1198
    -8.0559  -8.0538  -8.0471  -7.9510  -7.8975  -7.8973  -7.8354  -7.8349
    -7.7710  -7.5897  -7.5056  -7.5052  -7.4476  -7.4451  -7.4443  -7.4057
    -7.3879  -7.3858  -7.3208  -7.3073  -7.2701  -7.2699  -7.2577  -7.1921
    -7.1895  -7.1722  -7.1555  -7.1521  -7.1118  -7.1097  -6.9367  -6.9096
    -6.8568  -6.8565  -6.7570  -6.7547  -6.7224  -6.6345  -6.6324  -6.6292
    -6.5712  -6.5707  -6.5463  -6.5022  -6.4782  -6.4778  -6.4456  -6.4432
    -6.3973  -6.3967  -6.3836  -6.3588  -6.3090  -6.3080  -6.2774  -6.2773
    -6.2583  -6.2579  -6.2270  -6.1811  -6.1761  -6.1755  -6.1024  -6.0870
    -6.0835  -6.0828  -6.0803  -6.0671  -6.0421  -6.0111  -5.9842  -5.9800
    -5.8662  -5.8331  -5.8278  -5.5513  -5.5509  -5.5311  -5.4836  -5.4042
    -5.4036  -5.3720  -5.3708  -5.3112  -5.2910  -5.2898  -5.2831  -5.2363
    -5.2005  -5.1996  -5.1148  -5.1137  -5.0612  -5.0597  -5.0554  -5.0105
    -5.0087  -5.0038  -4.7234  -4.7231  -4.7162  -4.6761  -4.6758  -4.5936
    -4.5055  -4.4103  -4.3848  -4.3839  -4.3619  -4.3615  -4.2615  -4.2613
    -4.2586  -4.1241  -4.1211  -4.1124  -4.0941  -4.0909  -4.0701  -4.0597
    -4.0567  -4.0555  -3.9606  -3.9258  -3.9220  -3.8874  -3.8848  -3.8101
    -3.8080  -3.6791  -3.5923  -3.5599  -3.5595  -3.4197  -3.4180  -3.4098
    -3.4021  -3.3999  -3.3909  -3.3580  -3.3574  -3.2812  -3.2809  -3.0138
    -2.9325  -2.9203  -2.9202  -2.8960  -2.8959  -2.8108  -2.7618  -2.7617
    -2.7242  -2.7238  -2.7096  -2.4360  -2.4316  -2.3952  -2.3951  -2.3880
    -2.3879  -2.1986  -2.1634  -2.1630  -2.1219  -2.0770  -2.0766  -1.9322
    -1.9320  -1.9182  -1.9181  -1.9112  -1.8790  -1.5094  -1.5091  -1.4517
    -1.2924  -1.2904  -1.2822  -1.2576  -1.2559  -1.2508  -0.5987  -0.5805
    -0.5801

     highest occupied level (ev):    -0.5424

!    total energy              =   -2938.08699615 Ry
     estimated scf accuracy    <          4.1E-10 Ry

     The total energy is the sum of the following terms:
     one-electron contribution =   -5750.47616430 Ry
     hartree contribution      =    3070.62989299 Ry
     xc contribution           =    -693.79674436 Ry
     ewald contribution        =    1355.44979230 Ry
     one-center paw contrib.   =    -919.89377278 Ry

     convergence has been achieved in  10 iterations

     negative rho (up, down):  2.529E-07 0.000E+00

     Forces acting on atoms (cartesian axes, Ry/au):

     atom    1 type  1   force =     0.00009050   -0.00035537    0.00006075
     atom    2 type  1   force =     0.00026309    0.00026312    0.00005584
     atom    3 type  1   force =    -0.00036250    0.00010471    0.00005971
     atom    4 type  1   force =     0.00009633    0.00035941   -0.00005584
     atom    5 type  1   force =    -0.00035300   -0.00009931   -0.00006075
     atom    6 type  1   force =     0.00027193   -0.00026158   -0.00005971
     atom    7 type  2   force =    -0.00034392    0.00022029    0.00011885
     atom    8 type  2   force =    -0.00001927   -0.00040913    0.00011747
     atom    9 type  2   force =     0.00036327    0.00018669    0.00011943
     atom   10 type  2   force =    -0.00034468   -0.00022126   -0.00011747
     atom   11 type  2   force =     0.00036273   -0.00018770   -0.00011885
     atom   12 type  2   force =    -0.00001996    0.00040795   -0.00011943
     atom   13 type  2   force =     0.00013311    0.00016849   -0.00037572
     atom   14 type  2   force =    -0.00021187    0.00002863   -0.00037377
     atom   15 type  2   force =     0.00007999   -0.00019843   -0.00037103
     atom   16 type  2   force =     0.00013073   -0.00016917    0.00037377
     atom   17 type  2   force =     0.00007936    0.00019953    0.00037572
     atom   18 type  2   force =    -0.00021184   -0.00002994    0.00037103
     atom   19 type  2   force =    -0.00001152    0.00037113   -0.00001135
     atom   20 type  2   force =    -0.00031663   -0.00019797   -0.00000909
     atom   21 type  2   force =     0.00032985   -0.00017824   -0.00000599
     atom   22 type  2   force =    -0.00001314   -0.00037319    0.00000909
     atom   23 type  2   force =     0.00032716    0.00017559    0.00001135
     atom   24 type  2   force =    -0.00031929    0.00019654    0.00000599
     atom   25 type  3   force =     0.00012811    0.00013109   -0.00027761
     atom   26 type  3   force =    -0.00017707    0.00004576   -0.00027779
     atom   27 type  3   force =     0.00004847   -0.00017616   -0.00027864
     atom   28 type  3   force =     0.00012816   -0.00013047    0.00027779
     atom   29 type  3   force =     0.00004947    0.00017649    0.00027761
     atom   30 type  3   force =    -0.00017679   -0.00004610    0.00027864
     atom   31 type  3   force =    -0.00023057    0.00027832    0.00012302
     atom   32 type  3   force =    -0.00012532   -0.00033864    0.00012199
     atom   33 type  3   force =     0.00035534    0.00006208    0.00012185
     atom   34 type  3   force =    -0.00023061   -0.00027785   -0.00012199
     atom   35 type  3   force =     0.00035632   -0.00006052   -0.00012302
     atom   36 type  3   force =    -0.00012391    0.00033877   -0.00012185
     atom   37 type  3   force =    -0.00024664   -0.00016673   -0.00036746
     atom   38 type  3   force =     0.00026705   -0.00013076   -0.00036926
     atom   39 type  3   force =    -0.00002083    0.00029914   -0.00036660
     atom   40 type  3   force =    -0.00024677    0.00016589    0.00036926
     atom   41 type  3   force =    -0.00002107   -0.00029696    0.00036746
     atom   42 type  3   force =     0.00026948    0.00013153    0.00036660
     atom   43 type  3   force =     0.00011654    0.00005959    0.00019112
     atom   44 type  3   force =    -0.00009462    0.00006422    0.00019367
     atom   45 type  3   force =    -0.00000618   -0.00011366    0.00019133
     atom   46 type  3   force =     0.00010293   -0.00004983   -0.00019367
     atom   47 type  3   force =    -0.00000666    0.00013072   -0.00019112
     atom   48 type  3   force =    -0.00009534   -0.00006218   -0.00019133
     atom   49 type  3   force =     0.00015067   -0.00012612    0.00021977
     atom   50 type  3   force =     0.00004176    0.00018538    0.00021782
     atom   51 type  3   force =    -0.00017904   -0.00004924    0.00022685
     atom   52 type  3   force =     0.00013967    0.00012885   -0.00021782
     atom   53 type  3   force =    -0.00018456    0.00006742   -0.00021977
     atom   54 type  3   force =     0.00004688   -0.00017967   -0.00022685
     atom   55 type  3   force =    -0.00000518    0.00047988   -0.00033535
     atom   56 type  3   force =    -0.00040157   -0.00026047   -0.00033130
     atom   57 type  3   force =     0.00042303   -0.00019696   -0.00032890
     atom   58 type  3   force =    -0.00002479   -0.00047800    0.00033130
     atom   59 type  3   force =     0.00041818    0.00023545    0.00033535
     atom   60 type  3   force =    -0.00038209    0.00026788    0.00032890
     atom   61 type  3   force =     0.00040585   -0.00102016    0.00020398
     atom   62 type  3   force =     0.00069460    0.00085292    0.00021996
     atom   63 type  3   force =    -0.00108239    0.00018463    0.00020223
     atom   64 type  3   force =     0.00039135    0.00102800   -0.00021996
     atom   65 type  3   force =    -0.00108641   -0.00015861   -0.00020398
     atom   66 type  3   force =     0.00070109   -0.00084506   -0.00020223
     atom   67 type  3   force =     0.00025292   -0.00017200    0.00010032
     atom   68 type  3   force =     0.00003348    0.00028715    0.00009350
     atom   69 type  3   force =    -0.00027743   -0.00011441    0.00009635
     atom   70 type  3   force =     0.00023194    0.00017257   -0.00009350
     atom   71 type  3   force =    -0.00027542    0.00013303   -0.00010032
     atom   72 type  3   force =     0.00003963   -0.00029747   -0.00009635
     atom   73 type  3   force =    -0.00031508    0.00077354    0.00003779
     atom   74 type  3   force =    -0.00048153   -0.00066890    0.00004549
     atom   75 type  3   force =     0.00082266   -0.00007558    0.00003079
     atom   76 type  3   force =    -0.00033852   -0.00075147   -0.00004549
     atom   77 type  3   force =     0.00082744    0.00011390   -0.00003779
     atom   78 type  3   force =    -0.00047679    0.00067465   -0.00003079
     atom   79 type  3   force =     0.00027052    0.00008659    0.00003559
     atom   80 type  3   force =    -0.00022243    0.00017281    0.00003554
     atom   81 type  3   force =    -0.00005482   -0.00025679    0.00003256
     atom   82 type  3   force =     0.00026087   -0.00010622   -0.00003554
     atom   83 type  3   force =    -0.00006027    0.00027757   -0.00003559
     atom   84 type  3   force =    -0.00019498   -0.00017587   -0.00003256
     atom   85 type  3   force =    -0.00018178    0.00019285   -0.00054595
     atom   86 type  3   force =    -0.00003521   -0.00023521   -0.00058864
     atom   87 type  3   force =     0.00021803    0.00007207   -0.00058636
     atom   88 type  3   force =    -0.00018609   -0.00014810    0.00058864
     atom   89 type  3   force =     0.00025791   -0.00006100    0.00054595
     atom   90 type  3   force =    -0.00004660    0.00022486    0.00058636
     atom   91 type  3   force =    -0.00003444   -0.00000507   -0.00039875
     atom   92 type  3   force =     0.00002982   -0.00001632   -0.00037734
     atom   93 type  3   force =    -0.00000371    0.00003340   -0.00038227
     atom   94 type  3   force =    -0.00002904    0.00001767    0.00037734
     atom   95 type  3   force =     0.00001283   -0.00003236    0.00039875
     atom   96 type  3   force =     0.00003078    0.00001349    0.00038227
     atom   97 type  3   force =     0.00011972   -0.00008838   -0.00007349
     atom   98 type  3   force =     0.00001514    0.00014261   -0.00003970
     atom   99 type  3   force =    -0.00013016   -0.00005824   -0.00004219
     atom  100 type  3   force =     0.00011593    0.00008442    0.00003970
     atom  101 type  3   force =    -0.00013640    0.00005949    0.00007349
     atom  102 type  3   force =     0.00001464   -0.00014185    0.00004219
     atom  103 type  3   force =     0.00023386    0.00020089   -0.00012583
     atom  104 type  3   force =    -0.00028146    0.00008535   -0.00010959
     atom  105 type  3   force =     0.00006776   -0.00028122   -0.00011305
     atom  106 type  3   force =     0.00021464   -0.00020108    0.00010959
     atom  107 type  3   force =     0.00005704    0.00030298    0.00012583
     atom  108 type  3   force =    -0.00027742   -0.00008193    0.00011305
     atom  109 type  3   force =     0.00004054    0.00026926    0.00007932
     atom  110 type  3   force =    -0.00022666   -0.00010716    0.00007531
     atom  111 type  3   force =     0.00020630   -0.00013800    0.00007717
     atom  112 type  3   force =     0.00002053   -0.00024987   -0.00007531
     atom  113 type  3   force =     0.00021292    0.00016974   -0.00007932
     atom  114 type  3   force =    -0.00022266    0.00010966   -0.00007717
     atom  115 type  3   force =    -0.00004843   -0.00004359   -0.00011756
     atom  116 type  3   force =     0.00006967   -0.00002192   -0.00011532
     atom  117 type  3   force =    -0.00001326    0.00006770   -0.00011882
     atom  118 type  3   force =    -0.00005382    0.00004938    0.00011532
     atom  119 type  3   force =    -0.00001354   -0.00006373    0.00011756
     atom  120 type  3   force =     0.00006526    0.00002237    0.00011882
     atom  121 type  3   force =    -0.00010878   -0.00024993    0.00017707
     atom  122 type  3   force =     0.00027533    0.00002342    0.00017614
     atom  123 type  3   force =    -0.00015833    0.00022482    0.00017431
     atom  124 type  3   force =    -0.00011738    0.00025015   -0.00017614
     atom  125 type  3   force =    -0.00016206   -0.00021917   -0.00017707
     atom  126 type  3   force =     0.00027386   -0.00002471   -0.00017431
     atom  127 type  4   force =     0.00004385   -0.00049249   -0.00002522
     atom  128 type  4   force =     0.00040427    0.00028516   -0.00002601
     atom  129 type  4   force =    -0.00044430    0.00020696   -0.00002325
     atom  130 type  4   force =     0.00004482    0.00049269    0.00002601
     atom  131 type  4   force =    -0.00044844   -0.00020827    0.00002522
     atom  132 type  4   force =     0.00040138   -0.00028129    0.00002325
     atom  133 type  4   force =    -0.00017907    0.00023511    0.00011507
     atom  134 type  4   force =    -0.00011450   -0.00027257    0.00011680
     atom  135 type  4   force =     0.00029448    0.00003768    0.00011481
     atom  136 type  4   force =    -0.00017880   -0.00023544   -0.00011680
     atom  137 type  4   force =     0.00029315   -0.00003753   -0.00011507
     atom  138 type  4   force =    -0.00011460    0.00027386   -0.00011481
     atom  139 type  4   force =     0.00100221   -0.00025901   -0.00024081
     atom  140 type  4   force =    -0.00027638    0.00099434   -0.00024249
     atom  141 type  4   force =    -0.00072356   -0.00073967   -0.00023973
     atom  142 type  4   force =     0.00099931    0.00025782    0.00024249
     atom  143 type  4   force =    -0.00072541    0.00073844    0.00024081
     atom  144 type  4   force =    -0.00027879   -0.00099646    0.00023973
     atom  145 type  4   force =    -0.00035072    0.00046714    0.00032060
     atom  146 type  4   force =    -0.00022781   -0.00053752    0.00032051
     atom  147 type  4   force =     0.00057890    0.00007140    0.00031686
     atom  148 type  4   force =    -0.00035160   -0.00046604   -0.00032051
     atom  149 type  4   force =     0.00057991   -0.00007017   -0.00032060
     atom  150 type  4   force =    -0.00022761    0.00053704   -0.00031686
     atom  151 type  4   force =     0.00006534   -0.00034306   -0.00037446
     atom  152 type  4   force =     0.00026269    0.00022556   -0.00037653
     atom  153 type  4   force =    -0.00032840    0.00011794   -0.00037298
     atom  154 type  4   force =     0.00006399    0.00034028    0.00037653
     atom  155 type  4   force =    -0.00032976   -0.00011495    0.00037446
     atom  156 type  4   force =     0.00026634   -0.00022543    0.00037298
     atom  157 type  4   force =    -0.00014037    0.00062785    0.00014385
     atom  158 type  4   force =    -0.00047094   -0.00043600    0.00014641
     atom  159 type  4   force =     0.00061364   -0.00019362    0.00013991
     atom  160 type  4   force =    -0.00014212   -0.00062585   -0.00014641
     atom  161 type  4   force =     0.00061392    0.00019236   -0.00014385
     atom  162 type  4   force =    -0.00047450    0.00043462   -0.00013991
     atom  163 type  4   force =    -0.00031014   -0.00057475    0.00050403
     atom  164 type  4   force =     0.00065034    0.00001903    0.00050614
     atom  165 type  4   force =    -0.00033640    0.00055207    0.00050028
     atom  166 type  4   force =    -0.00030869    0.00057272   -0.00050614
     atom  167 type  4   force =    -0.00034267   -0.00055596   -0.00050403
     atom  168 type  4   force =     0.00064631   -0.00001529   -0.00050028
     atom  169 type  4   force =     0.00005152    0.00016140    0.00024920
     atom  170 type  4   force =    -0.00015674   -0.00003581    0.00024974
     atom  171 type  4   force =     0.00010809   -0.00011227    0.00024428
     atom  172 type  4   force =     0.00004736   -0.00015365   -0.00024974
     atom  173 type  4   force =     0.00011402    0.00012532   -0.00024920
     atom  174 type  4   force =    -0.00015128    0.00003747   -0.00024428
     atom  175 type  4   force =     0.00001218    0.00028333    0.00060625
     atom  176 type  4   force =    -0.00023570   -0.00014022    0.00061257
     atom  177 type  4   force =     0.00023675   -0.00013675    0.00060601
     atom  178 type  4   force =    -0.00000359   -0.00027423   -0.00061257
     atom  179 type  4   force =     0.00023928    0.00015221   -0.00060625
     atom  180 type  4   force =    -0.00023680    0.00013666   -0.00060601
     atom  181 type  4   force =     0.00006457    0.00007627   -0.00015570
     atom  182 type  4   force =    -0.00006882   -0.00000176   -0.00015755
     atom  183 type  4   force =     0.00002705   -0.00007271   -0.00015123
     atom  184 type  4   force =     0.00003289   -0.00006048    0.00015755
     atom  185 type  4   force =     0.00003377    0.00009405    0.00015570
     atom  186 type  4   force =    -0.00007650   -0.00001293    0.00015123
     atom  187 type  4   force =     0.00014790   -0.00008447   -0.00037981
     atom  188 type  4   force =     0.00000737    0.00016200   -0.00038258
     atom  189 type  4   force =    -0.00015109   -0.00007027   -0.00038489
     atom  190 type  4   force =     0.00013661    0.00008738    0.00038258
     atom  191 type  4   force =    -0.00014710    0.00008585    0.00037981
     atom  192 type  4   force =     0.00001469   -0.00016598    0.00038489
     atom  193 type  4   force =     0.00005665   -0.00003461   -0.00010854
     atom  194 type  4   force =     0.00000968    0.00004506   -0.00012098
     atom  195 type  4   force =    -0.00006168    0.00000154   -0.00011449
     atom  196 type  4   force =     0.00003418    0.00003091    0.00012098
     atom  197 type  4   force =    -0.00005829    0.00003175    0.00010854
     atom  198 type  4   force =     0.00003217   -0.00005265    0.00011449
     atom  199 type  4   force =     0.00018025    0.00014788    0.00005866
     atom  200 type  4   force =    -0.00021515    0.00008429    0.00005365
     atom  201 type  4   force =     0.00003623   -0.00022050    0.00005579
     atom  202 type  4   force =     0.00018057   -0.00014418   -0.00005365
     atom  203 type  4   force =     0.00003794    0.00023004   -0.00005866
     atom  204 type  4   force =    -0.00020907   -0.00007887   -0.00005579
     atom  205 type  5   force =     0.00011018    0.00001408    0.00018696
     atom  206 type  5   force =    -0.00005065    0.00008904    0.00018913
     atom  207 type  5   force =    -0.00005295   -0.00008960    0.00018830
     atom  208 type  5   force =     0.00010244    0.00000066   -0.00018913
     atom  209 type  5   force =    -0.00004290    0.00010245   -0.00018696
     atom  210 type  5   force =    -0.00005112   -0.00009065   -0.00018830
     atom  211 type  5   force =     0.00005630    0.00001746   -0.00017976
     atom  212 type  5   force =    -0.00004675    0.00004053   -0.00018406
     atom  213 type  5   force =    -0.00001142   -0.00005280   -0.00018067
     atom  214 type  5   force =     0.00005847   -0.00002022    0.00018406
     atom  215 type  5   force =    -0.00001303    0.00005748    0.00017976
     atom  216 type  5   force =    -0.00004001   -0.00003629    0.00018067
     atom  217 type  4   force =    -0.00009670   -0.00016749    0.00000000
     atom  218 type  2   force =    -0.00012490   -0.00016520    0.00040158
     atom  219 type  2   force =    -0.00008062   -0.00019076   -0.00040158

     Total force =     0.007280     Total SCF correction =     0.000037
     Energy error            =      5.8E-05 Ry
     Gradient error          =      1.1E-03 Ry/Bohr

     number of scf cycles    =  11
     number of bfgs steps    =  10

     energy             old  =   -2938.0869382083 Ry
     energy             new  =   -2938.0869961525 Ry

     CASE: energy            _new < energy            _old

     new trust radius        =       0.0032169067 bohr
     new conv_thr            =       0.0000000010 Ry


ATOMIC_POSITIONS (angstrom)
Mg              10.2308718207        5.4274863444        5.8287846388
Mg              12.1378375991        6.1464916655        1.1559381031
Mg              10.5617238680        7.4385538796        3.4924080727
Mg              -0.7459008731       13.5849215405        5.8533218969
Mg              -0.4150948574       11.5739380717        1.1804753612
Mg               1.1611146932       12.8659981172        3.5168519273
O               11.4509286834        4.4593775801        0.1801754076
O               12.3662902277        7.6870510072        2.5166110348
O                9.1133148153        6.8659498629        4.8530161050
O                0.4740363386       14.5530469914        4.4926489652
O               -1.8635300723       12.1464839269        6.8290845924
O                1.3894295948       11.3253370742        2.1562438950
O               10.8131551363        5.4829555373        2.6542456184
O               11.7987475902        6.6229386980        4.9906354640
O               10.3186386284        6.9064967993        0.3177928928
O               -0.1637406349       13.5294844950        2.0186245360
O               -0.6581987850       12.1059448117        4.3550143816
O                0.8218823652       12.3894515843        6.6914671072
O               10.2294697277        4.0562614855        4.2799444396
O               13.3261070550        6.8308420544        6.6163658073
O                9.3748754374        8.1252174280        1.9435486025
O               -0.7473707791       14.9561682704        0.3928941927
O               -1.6019093729       10.8871113942        2.7293155604
O                2.3492069853       12.1814890001        5.0657113975
H               10.5747318804        1.7581746526        3.7788413238
H               15.1436825323        8.2789047936        6.1152653582
H                7.2121040754        8.9753794323        1.4424173849
H               -0.4020993994       17.2542661766        0.8939946418
H               -3.7647420267       10.0370737729        3.2304186762
H                4.1668545593       10.7335550602        5.5668426151
H                0.8047780716       18.9798327813        0.0614665151
H               -5.8625728462       10.2194568642        2.3978739116
H                5.0578175511        8.8256000095        4.7342940685
H               11.7815956804        0.0325914157        4.6113860884
H               16.0346283125       10.1868746450        6.9477934849
H                5.1142850363        8.7929984917        2.2749659315
H               11.8737231795        2.2092805848        6.0389875928
H               14.1034931938        9.1783083101        1.3661488544
H                6.9532814300        7.6248657072        3.7025604677
H                0.8969015634       16.8031375430        5.6431111456
H               -4.0235684793       11.3875862034        0.9702724072
H                3.1266866880        9.8341512116        3.3066995323
H                2.7216483874       15.5486585352        1.4802278303
H               -3.8494933642       13.5951382247        3.8166652047
H                1.1278483964        8.8811182413        6.1530404445
H               13.6984817527        3.4638100672        3.1925947953
H               12.1047090925       10.1313459112        5.5290321697
H                7.1273498128        5.4173044835        0.8562195555
H                3.6229053084       14.1482772931        5.8999008644
H               -3.0872469152       15.0756177751        1.2270893188
H               -0.5353319167        8.8009997609        3.5633722570
H               14.5994914286        4.8641746313        5.7821706812
H               10.4413149015       10.2116666792        1.1093591356
H                7.8895553300        3.9368888412        3.4458877430
H                6.0029300762       13.6408256417        5.6345293870
H               -3.8377467017       17.3906064990        0.9616684270
H               -2.1650282124        6.9934323105        3.2980484108
H               16.9795803662        5.3717171125        6.0475915730
H                8.8118364963       12.0191027640        1.3747306130
H                7.1390041467        1.6217467233        3.7112115892
H                5.4007293981       14.9003318719        4.5348906573
H               -4.6276586148       16.2394406549        6.8713761060
H               -0.7731223888        6.8851013934        2.1984741804
H               16.3775974578        4.1120504070        0.1378838940
H               10.2037012269       12.1273347937        2.4743693427
H                6.3492339087        2.7730070677        4.8107858196
H                5.0343459031       16.4307105246        1.3659788638
H               -5.7695694993       15.1569185944        3.7024252899
H                0.7352809673        6.4373211176        6.0388756371
H               16.0110612955        2.5818655419        3.3068347101
H               11.7122397650       12.5752267057        5.6432811362
H                5.2072431366        3.8554325555        0.9703843629
H                5.5995955126       15.1495183513        2.4503657894
H               -4.9428699398       16.2870672504        4.7868082226
H               -0.6568170056        6.5882573251        0.1139192470
H               16.5764489618        3.8628826897        2.2224517774
H               10.3200699910       12.4241511404        4.5588942106
H                6.0340067130        2.7253084500        6.8953407530
H                7.2708330933       14.4031882309        0.8068273198
H               -5.1318237030       18.1074715582        3.1433629550
H               -2.1388868789        5.5147322519        5.4796371437
H               18.2474422192        4.6094460846        3.8658970450
H                8.8381103568       13.4983202809        6.2024326802
H                5.8453416646        0.9050357530        1.5296228563
H                7.5002085059       16.1235189617        1.1048698684
H               -6.7355655932       17.4453675827        3.4429270723
H               -0.7638495589        4.4566502842        5.7793103385
H               18.4759143016        2.8895128787        3.5663329277
H               10.2132727664       14.5571305807        5.9043901316
H                4.2414971414        1.5668120194        1.2299496615
H                6.2559855309       16.6761595889        6.0184496975
H               -6.5927028794       16.0920257790        1.3450699357
H                0.3371123840        5.2572702595        3.6816910562
H               17.2324545626        2.3365647163        5.6641900643
H               11.3139850761       13.7559221900        0.9908103025
H                4.3843734073        2.9205830181        3.3275689438
H                7.5687227507       15.5565192553        5.6328401157
H               -6.2792714375       17.7883222114        0.9591181753
H               -1.2891385946        4.6807799944        3.2954322605
H               18.5447746446        3.4561525235        6.0501418247
H                9.6879794942       14.3329658039        1.3764198843
H                4.6982436820        1.2239632253        3.7138277395
H                2.3364907100       13.9820752413        0.7863999757
H               -2.3001593334       14.0448145810        3.1228446190
H               -0.0362191456        9.9980815973        5.4592175130
H               13.3132458852        5.0304108749        3.8864153810
H               10.9405870016        9.0144979311        6.2228600243
H                8.6767022251        4.9676740984        1.5500424870
H                4.8340754645       13.4137724855        0.8751818907
H               -3.0567537432       16.4919581541        3.2116164028
H               -1.7772321251        8.1192844121        5.5479550630
H               15.8108315912        5.5987526824        3.7976435972
H                9.1996300007       10.8933183989        6.1340781093
H                7.9201226240        2.5205140373        1.4613049370
H                3.6977958201       13.1532876424        2.8510648163
H               -2.2630623100       15.6381223590        5.1875575279
H               -1.4346441237        9.2334451747        0.5146490433
H               14.6745423854        5.8591917286        1.8217024721
H                9.5421833315        9.7790289394        4.1581951837
H                8.7137201477        3.3742843308        6.4946109567
H                3.2877113214       14.6015917660        3.4772920349
H               -3.3123399261       14.5588473836        5.8137590186
H                0.0246960819        8.8644357704        1.1408249503
H               14.2645016470        4.4108531699        1.1955009814
H               11.0014937444       10.1480374075        3.5319679651
H                7.6644785265        4.4536053194        5.8684350497
C               11.3186554748        3.2782304985        0.8022874015
C               13.4553307245        8.1630879208        3.1387024072
C                8.1565378735        7.5710848156        5.4751264488
C                0.3417761506       15.7342021841        3.8705575928
C               -2.8202968461       11.4413584271        6.2069725985
C                2.4784828478       10.8493114132        1.5341335512
C               10.9495759485        3.1275026754        2.1856274645
C               13.7704136065        7.9188232728        4.5220400559
C                8.2105333247        7.9660719054        6.8584660752
C               -0.0273046809       15.8849396402        2.4872199441
C               -2.7662912069       11.0463622697        4.8236325355
C                2.7935539761       11.0935663905        0.1507939248
C               10.8733774418        1.8305083166        2.7405797582
C               14.9317274227        8.5013532526        5.0769972271
C                7.1254099553        8.6805626289        0.4041606370
C               -0.1034758280       17.1819318968        1.9322627729
C               -3.8514220169       10.3318752479        4.2686802418
C                3.9548827781       10.5110673480        6.6050993630
C               11.1662841566        0.6710549821        2.0163482074
C               15.7893806615        9.3347483646        4.3527602715
C                5.9748467745        9.0066281336        6.6891853390
C                0.1894388909       18.3413789451        2.6564997285
C               -5.0019914164       10.0058132366        4.9929117926
C                4.8125453790        9.6776831571        0.3200746610
C               11.5164497621        0.8363037079        0.6531935888
C               15.4711864407        9.5553635117        2.9896030851
C                5.9428844524        8.6207640015        5.3260293453
C                0.5395943231       18.1761222402        4.0196569149
C               -5.0339646247       10.3916899094        6.3560664112
C                4.4943583991        9.4570709082        1.6832306547
C               11.5767202520        2.0920264418        0.0663700966
C               14.3535638956        8.9796949650        2.4027795270
C                7.0002322167        7.9406983816        4.7392054051
C                0.5998620101       16.9203984509        4.6064804730
C               -3.9766120820       11.0717470517        6.9428899034
C                3.3767304139       10.0327281228        2.2700545949
C               10.6484940300        4.2774080121        3.0903411267
C               12.9250982136        7.0831383999        5.4267523523
C                9.3569071828        7.6518429649        0.7539218883
C               -0.3283713140       14.7350325993        1.5825076477
C               -1.6199030141       11.3605703481        3.9189188733
C                1.9482368020       11.9292408036        6.2553381117
C                4.4480864201       14.4486711877        0.7492771078
C               -3.7599138620       15.6401714755        3.0856920637
C               -0.6879862053        7.9362010401        5.4221095480
C               15.4247427483        4.5639048172        3.9235679363
C               10.2888730894       11.0764914319        6.2599828922
C                7.2169448130        3.3722869888        1.5871504520
C                5.5909291470       14.6684196330        5.5858941052
C               -4.5216315469       16.5199736284        0.9131041256
C               -1.0690705381        6.8367043519        3.2494579851
C               16.5675326056        4.3441390281        6.0961558744
C                9.9077594621       12.1760964885        1.4233658948
C                6.4552949159        2.4925099315        3.7598020149
C                6.6194029341       15.6534311712        6.1687372730
C               -5.8889179450       16.9182150406        1.4957645084
C               -0.7303503356        5.4535684678        3.8323703113
C               17.5960629844        3.3591549791        5.5134954916
C               10.2465675837       13.5592866844        0.8405227270
C                5.0881040022        2.0942822896        3.1768896887
C                5.4570236537       15.4185699809        1.3989955956
C               -5.1042518473       16.0289201409        3.7354786805
C               -0.3525502770        6.5775960627        6.0718400289
C               16.4335779609        3.5940483034        3.2737813195
C               10.6243614667       12.4352061036        5.6102644044
C                5.8726404246        2.9834805353        0.9374199711
C                6.8139019778       15.3909920906        0.6672313173
C               -5.7585427204       17.2177229007        3.0035472159
C               -1.0549753479        5.4164349008        5.3401534071
C               17.7902567875        3.6218171657        4.0057127841
C                9.9220391510       13.5965082569        6.3420286827
C                5.2182578960        1.7945819987        1.6691065929
C                3.0579935162       14.5115313075        1.4080953826
C               -3.1194009850       14.4049129286        3.7445799194
C                0.0615252454        9.1085306608        6.0809252182
C               14.0347210280        4.5009759668        3.2646800806
C               11.0383580021        9.9040657234        5.6011646174
C                7.8574563207        4.6075477559        0.9283347818
N                4.3078273074       14.7775430641        6.3198137952
N               -3.9746324480       15.3542397784        1.6469980881
N               -0.3330197135        7.8932044307        3.9833581529
N               15.2844779278        4.2349872185        5.3622619119
N               10.6438140454       11.1194594154        0.6894462048
N                7.0022254110        3.6581986835        3.0259018471
N                3.0081152643       13.9070893068        2.7838038034
N               -2.5710764431       14.6639599833        5.1202803660
N               -0.4369988149        9.4538441977        0.4473798602
N               13.9849000872        5.1053624768        1.8889796340
N               10.5398350003        9.5586488898        4.2254561966
N                8.4057686461        4.3484700237        6.5618801398
C               10.7028601767       18.5378976123        3.5046300000
O               10.7024787804       18.5380554787        2.3311984951
O               10.7031875911       18.5376462467        4.6780615049



     Writing config-only to output data dir ./tmp/c_MOF_CO2_free.save/ :
     XML data file
     NEW-OLD atomic charge density approx. for the potential

     Check: negative core charge=   -0.000001

     negative rho (up, down):  2.429E-07 0.000E+00

     total cpu time spent up to now is     9275.7 secs

     per-process dynamical memory:   368.5 Mb

     Self-consistent Calculation

     iteration #  1     ecut=    60.00 Ry     beta= 0.30
     Davidson diagonalization with overlap
     ethr =  1.00E-06,  avg # of iterations =  2.0

     Threshold (ethr) on eigenvalues was too large:
     Diagonalizing with lowered threshold

     Davidson diagonalization with overlap
     ethr =  3.86E-09,  avg # of iterations =  5.0

     negative rho (up, down):  2.455E-07 0.000E+00

     total cpu time spent up to now is     9449.5 secs

     total energy              =   -2938.08704363 Ry
     estimated scf accuracy    <       0.00003383 Ry

     iteration #  2     ecut=    60.00 Ry     beta= 0.30
     Davidson diagonalization with overlap
     ethr =  5.55E-09,  avg # of iterations =  1.0

     negative rho (up, down):  2.501E-07 0.000E+00

     total cpu time spent up to now is     9508.0 secs

     total energy              =   -2938.08704376 Ry
     estimated scf accuracy    <       0.00001411 Ry

     iteration #  3     ecut=    60.00 Ry     beta= 0.30
     Davidson diagonalization with overlap
     ethr =  2.31E-09,  avg # of iterations =  4.0

     negative rho (up, down):  2.506E-07 0.000E+00

     total cpu time spent up to now is     9587.2 secs

     total energy              =   -2938.08704544 Ry
     estimated scf accuracy    <       0.00000130 Ry

     iteration #  4     ecut=    60.00 Ry     beta= 0.30
     Davidson diagonalization with overlap
     ethr =  2.13E-10,  avg # of iterations =  5.5

     negative rho (up, down):  2.511E-07 0.000E+00

     total cpu time spent up to now is     9673.3 secs

     total energy              =   -2938.08704583 Ry
     estimated scf accuracy    <       0.00000064 Ry

     iteration #  5     ecut=    60.00 Ry     beta= 0.30
     Davidson diagonalization with overlap
     ethr =  1.05E-10,  avg # of iterations =  5.0

     negative rho (up, down):  2.515E-07 0.000E+00

     total cpu time spent up to now is     9741.1 secs

     total energy              =   -2938.08704586 Ry
     estimated scf accuracy    <       0.00000013 Ry

     iteration #  6     ecut=    60.00 Ry     beta= 0.30
     Davidson diagonalization with overlap
     ethr =  2.18E-11,  avg # of iterations =  6.0

     negative rho (up, down):  2.516E-07 0.000E+00

     total cpu time spent up to now is     9829.1 secs

     total energy              =   -2938.08704589 Ry
     estimated scf accuracy    <       0.00000011 Ry

     iteration #  7     ecut=    60.00 Ry     beta= 0.30
     Davidson diagonalization with overlap
     ethr =  1.77E-11,  avg # of iterations =  5.0

     negative rho (up, down):  2.517E-07 0.000E+00

     total cpu time spent up to now is     9901.0 secs

     total energy              =   -2938.08704589 Ry
     estimated scf accuracy    <       0.00000001 Ry

     iteration #  8     ecut=    60.00 Ry     beta= 0.30
     Davidson diagonalization with overlap
     ethr =  2.17E-12,  avg # of iterations =  8.0

     negative rho (up, down):  2.517E-07 0.000E+00

     total cpu time spent up to now is     9999.8 secs

     total energy              =   -2938.08704590 Ry
     estimated scf accuracy    <       0.00000002 Ry

     iteration #  9     ecut=    60.00 Ry     beta= 0.30
     Davidson diagonalization with overlap
     ethr =  2.17E-12,  avg # of iterations =  5.0

     negative rho (up, down):  2.517E-07 0.000E+00

     total cpu time spent up to now is    10071.6 secs

     total energy              =   -2938.08704591 Ry
     estimated scf accuracy    <          2.0E-09 Ry

     iteration # 10     ecut=    60.00 Ry     beta= 0.30
     Davidson diagonalization with overlap
     ethr =  3.34E-13,  avg # of iterations =  9.5

     negative rho (up, down):  2.517E-07 0.000E+00

     total cpu time spent up to now is    10177.4 secs

     total energy              =   -2938.08704592 Ry
     estimated scf accuracy    <          1.3E-09 Ry

     iteration # 11     ecut=    60.00 Ry     beta= 0.30
     Davidson diagonalization with overlap
     ethr =  2.06E-13,  avg # of iterations =  2.0

     negative rho (up, down):  2.517E-07 0.000E+00

     total cpu time spent up to now is    10239.9 secs

     End of self-consistent calculation

          k = 0.0000 0.0000 0.0000 (154911 PWs)   bands (ev):

   -25.0763 -24.1305 -22.3623 -22.3623 -22.2208 -22.2208 -22.2205 -22.2204
   -20.4253 -20.4249 -20.4098 -20.4095 -20.4093 -20.4089 -19.9436 -19.9432
   -19.9266 -19.9265 -19.9263 -19.9261 -18.6512 -18.6502 -18.6497 -18.6487
   -18.6465 -18.6453 -18.0721 -18.0709 -18.0706 -18.0694 -18.0674 -18.0660
   -17.0315 -17.0229 -17.0224 -16.3883 -16.3670 -16.3666 -15.3475 -15.3474
   -15.3381 -15.2841 -15.2840 -15.2749 -14.7162 -14.7096 -14.7063 -14.7062
   -14.7053 -14.7009 -14.6114 -14.5568 -14.5563 -14.4438 -14.4349 -14.4344
   -14.2058 -14.2054 -14.1953 -13.0484 -12.9741 -12.9737 -12.6724 -12.6701
   -12.6635 -12.6576 -12.6558 -12.6509 -11.6165 -11.6153 -11.6088 -11.5933
   -11.5925 -11.5845 -11.5572 -11.5537 -11.5441 -11.1908 -11.1905 -11.1596
   -10.7233 -10.7209 -10.7143 -10.7086 -10.6974 -10.6943 -10.6821 -10.5971
   -10.5966 -10.2806 -10.2802 -10.2381  -9.8416  -9.7395  -9.6832  -9.6794
    -9.6738  -9.6381  -9.6343  -9.6289  -9.4633  -9.4629  -9.3778  -8.8775
    -8.8773  -8.7244  -8.6961  -8.6891  -8.6795  -8.6776  -8.6634  -8.6613
    -8.6485  -8.6479  -8.5065  -8.5061  -8.4133  -8.3610  -8.3583  -8.3383
    -8.2973  -8.2852  -8.2824  -8.0075  -8.0073  -7.8143  -7.6891  -7.6814
    -7.6811  -7.6058  -7.6055  -7.5362  -7.4534  -7.4532  -7.3997  -7.3463
    -7.3426  -7.3414  -7.3158  -7.3153  -7.2308  -7.2252  -7.2248  -7.2155
    -7.1685  -7.1684  -7.0754  -7.0711  -7.0611  -7.0607  -6.9929  -6.9927
    -6.8982  -6.8943  -6.8918  -6.8326  -6.8307  -6.6913  -6.6373  -6.5844
    -6.5840  -6.5283  -6.5121  -6.5087  -6.5025  -6.4859  -6.4842  -6.4538
    -6.4512  -6.4294  -6.4071  -6.3097  -6.2831  -6.1801  -6.1797  -6.1713
    -6.1693  -6.0932  -6.0914  -6.0654  -6.0536  -6.0534  -6.0350  -5.9934
    -5.9931  -5.9544  -5.9272  -5.9241  -5.9061  -5.6434  -5.6295  -5.6249
    -5.6223  -5.6169  -5.6139  -5.5146  -5.5141  -5.4125  -5.3888  -5.3882
    -5.3874  -5.3217  -5.3215  -5.2814  -5.2515  -5.2243  -5.2221  -5.2094
    -5.1995  -5.1978  -5.1109  -5.1096  -5.0936  -5.0717  -5.0686  -5.0232
    -5.0204  -5.0164  -4.9075  -4.9071  -4.8930  -4.7526  -4.7522  -4.6460
    -4.4368  -4.4356  -4.3744  -4.3722  -4.3507  -4.3405  -4.2854  -4.2709
    -4.2694  -4.2041  -4.2034  -4.1610  -4.1315  -4.1281  -4.1213  -4.1111
    -4.0849  -4.0794  -3.9534  -3.9504  -3.9366  -3.9233  -3.8752  -3.8713
    -3.8254  -3.8224  -3.7699  -3.7658  -3.7242  -3.7204  -3.7198  -3.6110
    -3.5888  -3.5874  -3.3837  -3.3833  -3.3720  -3.3717  -3.3442  -3.0810
    -3.0809  -3.0268  -3.0076  -2.9863  -2.9862  -2.7724  -2.7712  -2.6974
    -2.6963  -2.5568  -2.5527  -2.4592  -2.4590  -2.4522  -2.4520  -2.3893
    -2.3821  -2.1312  -2.1308  -2.1200  -2.1196  -2.0938  -2.0851  -1.9191
    -1.9189  -1.8920  -1.8918  -1.7390  -1.7388  -1.5241  -1.5237  -1.4537
    -1.2984  -1.2958  -1.2930  -1.2569  -1.2561  -1.2528  -0.6199  -0.6195
    -0.5431

          k = 0.0000 0.0000-1.5660 (154844 PWs)   bands (ev):

   -25.0761 -24.1307 -22.3030 -22.3029 -22.3026 -22.3026 -22.1897 -22.1897
   -20.4572 -20.4569 -20.4568 -20.4565 -20.3955 -20.3950 -19.9219 -19.9216
   -19.9215 -19.9212 -19.8979 -19.8977 -18.6150 -18.6138 -18.6123 -18.6112
   -18.6097 -18.6085 -18.1232 -18.1220 -18.1197 -18.1185 -18.1175 -18.1162
   -17.0127 -17.0125 -17.0119 -16.3765 -16.3761 -16.3738 -15.3427 -15.3427
   -15.3333 -15.2794 -15.2793 -15.2701 -14.7056 -14.7053 -14.7024 -14.7024
   -14.7003 -14.6972 -14.5723 -14.5719 -14.5580 -14.4866 -14.4862 -14.4813
   -14.1979 -14.1975 -14.1907 -13.0122 -13.0118 -12.9832 -12.6800 -12.6752
   -12.6717 -12.6668 -12.6615 -12.6581 -11.6095 -11.6090 -11.5649 -11.5410
   -11.5393 -11.5327 -11.4859 -11.4823 -11.4762 -11.1466 -11.1462 -11.0852
   -10.7543 -10.7528 -10.7480 -10.7288 -10.7267 -10.7219 -10.6076 -10.6073
   -10.5389 -10.2833 -10.2830 -10.2487  -9.8261  -9.6961  -9.6931  -9.6827
    -9.6574  -9.6572  -9.6421  -9.6420  -9.6365  -9.4887  -9.2002  -9.1999
    -8.8256  -8.7685  -8.7673  -8.7652  -8.7640  -8.7453  -8.7305  -8.7252
    -8.6478  -8.6472  -8.4388  -8.3433  -8.3430  -8.1356  -8.1328  -8.1194
    -8.0556  -8.0535  -8.0468  -7.9507  -7.8975  -7.8973  -7.8356  -7.8352
    -7.7704  -7.5894  -7.5053  -7.5050  -7.4474  -7.4445  -7.4437  -7.4050
    -7.3874  -7.3853  -7.3207  -7.3070  -7.2693  -7.2692  -7.2578  -7.1919
    -7.1894  -7.1723  -7.1559  -7.1525  -7.1121  -7.1101  -6.9361  -6.9099
    -6.8571  -6.8567  -6.7565  -6.7542  -6.7217  -6.6338  -6.6318  -6.6282
    -6.5709  -6.5705  -6.5466  -6.5021  -6.4784  -6.4781  -6.4451  -6.4427
    -6.3974  -6.3967  -6.3842  -6.3591  -6.3084  -6.3074  -6.2769  -6.2768
    -6.2577  -6.2574  -6.2267  -6.1808  -6.1767  -6.1761  -6.1023  -6.0868
    -6.0832  -6.0826  -6.0801  -6.0668  -6.0424  -6.0107  -5.9842  -5.9800
    -5.8662  -5.8332  -5.8279  -5.5514  -5.5510  -5.5312  -5.4838  -5.4046
    -5.4040  -5.3724  -5.3712  -5.3107  -5.2911  -5.2899  -5.2834  -5.2364
    -5.2001  -5.1992  -5.1147  -5.1137  -5.0608  -5.0592  -5.0549  -5.0099
    -5.0081  -5.0033  -4.7236  -4.7233  -4.7162  -4.6769  -4.6766  -4.5943
    -4.5051  -4.4103  -4.3847  -4.3838  -4.3617  -4.3613  -4.2614  -4.2612
    -4.2586  -4.1239  -4.1210  -4.1123  -4.0938  -4.0906  -4.0697  -4.0588
    -4.0561  -4.0549  -3.9610  -3.9260  -3.9223  -3.8875  -3.8850  -3.8103
    -3.8078  -3.6788  -3.5921  -3.5595  -3.5591  -3.4194  -3.4177  -3.4095
    -3.4017  -3.3996  -3.3906  -3.3578  -3.3572  -3.2808  -3.2806  -3.0131
    -2.9324  -2.9195  -2.9194  -2.8952  -2.8951  -2.8109  -2.7614  -2.7613
    -2.7237  -2.7234  -2.7091  -2.4359  -2.4315  -2.3949  -2.3947  -2.3877
    -2.3876  -2.1992  -2.1640  -2.1635  -2.1223  -2.0771  -2.0767  -1.9322
    -1.9319  -1.9177  -1.9175  -1.9111  -1.8786  -1.5095  -1.5092  -1.4518
    -1.2924  -1.2904  -1.2822  -1.2575  -1.2558  -1.2506  -0.5995  -0.5813
    -0.5809

     highest occupied level (ev):    -0.5431

!    total energy              =   -2938.08704593 Ry
     estimated scf accuracy    <          7.9E-10 Ry

     The total energy is the sum of the following terms:
     one-electron contribution =   -5750.06542925 Ry
     hartree contribution      =    3070.42622230 Ry
     xc contribution           =    -693.79421176 Ry
     ewald contribution        =    1355.24011643 Ry
     one-center paw contrib.   =    -919.89374365 Ry

     convergence has been achieved in  11 iterations

     negative rho (up, down):  2.517E-07 0.000E+00

     Forces acting on atoms (cartesian axes, Ry/au):

     atom    1 type  1   force =     0.00002912   -0.00030466    0.00004035
     atom    2 type  1   force =     0.00025011    0.00018620    0.00003569
     atom    3 type  1   force =    -0.00028935    0.00013463    0.00003898
     atom    4 type  1   force =     0.00003620    0.00030970   -0.00003569
     atom    5 type  1   force =    -0.00027840   -0.00012711   -0.00004035
     atom    6 type  1   force =     0.00026127   -0.00018327   -0.00003898
     atom    7 type  2   force =    -0.00035680   -0.00000613    0.00007672
     atom    8 type  2   force =     0.00018445   -0.00030654    0.00007586
     atom    9 type  2   force =     0.00017372    0.00031078    0.00007758
     atom   10 type  2   force =    -0.00035770    0.00000647   -0.00007586
     atom   11 type  2   force =     0.00017309   -0.00031206   -0.00007672
     atom   12 type  2   force =     0.00018228    0.00030584   -0.00007758
     atom   13 type  2   force =     0.00006643   -0.00053757   -0.00019684
     atom   14 type  2   force =     0.00043222    0.00032398   -0.00019481
     atom   15 type  2   force =    -0.00049298    0.00020873   -0.00019437
     atom   16 type  2   force =     0.00006446    0.00053631    0.00019481
     atom   17 type  2   force =    -0.00049876   -0.00021125    0.00019684
     atom   18 type  2   force =     0.00042726   -0.00032257    0.00019437
     atom   19 type  2   force =    -0.00010323    0.00023585    0.00045482
     atom   20 type  2   force =    -0.00015326   -0.00020949    0.00045675
     atom   21 type  2   force =     0.00025876   -0.00003224    0.00045391
     atom   22 type  2   force =    -0.00010479   -0.00023747   -0.00045675
     atom   23 type  2   force =     0.00025586    0.00002853   -0.00045482
     atom   24 type  2   force =    -0.00015730    0.00020798   -0.00045391
     atom   25 type  3   force =     0.00014091    0.00014679   -0.00040397
     atom   26 type  3   force =    -0.00019697    0.00004877   -0.00040477
     atom   27 type  3   force =     0.00005548   -0.00019546   -0.00040585
     atom   28 type  3   force =     0.00014072   -0.00014620    0.00040477
     atom   29 type  3   force =     0.00005667    0.00019543    0.00040397
     atom   30 type  3   force =    -0.00019702   -0.00004968    0.00040585
     atom   31 type  3   force =    -0.00018869    0.00011374   -0.00002623
     atom   32 type  3   force =    -0.00000402   -0.00022031   -0.00002714
     atom   33 type  3   force =     0.00019304    0.00010771   -0.00002661
     atom   34 type  3   force =    -0.00018879   -0.00011364    0.00002714
     atom   35 type  3   force =     0.00019285   -0.00010654    0.00002623
     atom   36 type  3   force =    -0.00000324    0.00022103    0.00002661
     atom   37 type  3   force =    -0.00032511   -0.00017305    0.00002822
     atom   38 type  3   force =     0.00031252   -0.00019588    0.00002774
     atom   39 type  3   force =     0.00001267    0.00036991    0.00002781
     atom   40 type  3   force =    -0.00032589    0.00017271   -0.00002774
     atom   41 type  3   force =     0.00001269   -0.00036808   -0.00002822
     atom   42 type  3   force =     0.00031402    0.00019593   -0.00002781
     atom   43 type  3   force =     0.00018748    0.00007752    0.00017496
     atom   44 type  3   force =    -0.00014445    0.00011610    0.00017676
     atom   45 type  3   force =    -0.00002591   -0.00018172    0.00017563
     atom   46 type  3   force =     0.00017277   -0.00006705   -0.00017676
     atom   47 type  3   force =    -0.00002661    0.00020113   -0.00017496
     atom   48 type  3   force =    -0.00014442   -0.00011330   -0.00017563
     atom   49 type  3   force =     0.00011667   -0.00009794    0.00021258
     atom   50 type  3   force =     0.00003488    0.00014415    0.00021010
     atom   51 type  3   force =    -0.00014011   -0.00004106    0.00022139
     atom   52 type  3   force =     0.00010740    0.00010228   -0.00021010
     atom   53 type  3   force =    -0.00014316    0.00005207   -0.00021258
     atom   54 type  3   force =     0.00003450   -0.00014187   -0.00022139
     atom   55 type  3   force =     0.00006994    0.00036320   -0.00048628
     atom   56 type  3   force =    -0.00033674   -0.00013215   -0.00047943
     atom   57 type  3   force =     0.00028208   -0.00020375   -0.00047803
     atom   58 type  3   force =     0.00005393   -0.00035770    0.00047943
     atom   59 type  3   force =     0.00027957    0.00024217    0.00048628
     atom   60 type  3   force =    -0.00031749    0.00014242    0.00047803
     atom   61 type  3   force =     0.00047241   -0.00110196    0.00056844
     atom   62 type  3   force =     0.00073114    0.00094899    0.00057787
     atom   63 type  3   force =    -0.00118783    0.00017018    0.00056671
     atom   64 type  3   force =     0.00045628    0.00110768   -0.00057787
     atom   65 type  3   force =    -0.00119053   -0.00014186   -0.00056844
     atom   66 type  3   force =     0.00074130   -0.00094360   -0.00056671
     atom   67 type  3   force =     0.00021110   -0.00004582    0.00023275
     atom   68 type  3   force =    -0.00005438    0.00018575    0.00022805
     atom   69 type  3   force =    -0.00014477   -0.00014007    0.00022916
     atom   70 type  3   force =     0.00018805    0.00004578   -0.00022805
     atom   71 type  3   force =    -0.00014523    0.00015991   -0.00023275
     atom   72 type  3   force =    -0.00004892   -0.00019541   -0.00022916
     atom   73 type  3   force =    -0.00043628    0.00082491   -0.00024850
     atom   74 type  3   force =    -0.00046804   -0.00080279   -0.00024943
     atom   75 type  3   force =     0.00092881    0.00000478   -0.00025662
     atom   76 type  3   force =    -0.00046121   -0.00080672    0.00024943
     atom   77 type  3   force =     0.00093253    0.00003462    0.00024850
     atom   78 type  3   force =    -0.00046026    0.00080677    0.00025662
     atom   79 type  3   force =     0.00022505    0.00001965   -0.00001808
     atom   80 type  3   force =    -0.00015038    0.00017059   -0.00001659
     atom   81 type  3   force =    -0.00009601   -0.00018889   -0.00001939
     atom   82 type  3   force =     0.00022293   -0.00004494    0.00001659
     atom   83 type  3   force =    -0.00009550    0.00020473    0.00001808
     atom   84 type  3   force =    -0.00011558   -0.00017759    0.00001939
     atom   85 type  3   force =    -0.00013660    0.00027032   -0.00058603
     atom   86 type  3   force =    -0.00013755   -0.00022748   -0.00063981
     atom   87 type  3   force =     0.00025852   -0.00000706   -0.00063887
     atom   88 type  3   force =    -0.00012823   -0.00023286    0.00063981
     atom   89 type  3   force =     0.00030241    0.00001686    0.00058603
     atom   90 type  3   force =    -0.00013538    0.00022035    0.00063887
     atom   91 type  3   force =    -0.00007076   -0.00000172   -0.00039773
     atom   92 type  3   force =     0.00003789   -0.00005370   -0.00037635
     atom   93 type  3   force =     0.00002258    0.00006163   -0.00037702
     atom   94 type  3   force =    -0.00006546    0.00000596    0.00037635
     atom   95 type  3   force =     0.00003389   -0.00006214    0.00039773
     atom   96 type  3   force =     0.00004209    0.00005037    0.00037702
     atom   97 type  3   force =     0.00017969   -0.00004279    0.00000413
     atom   98 type  3   force =    -0.00005450    0.00016435    0.00004739
     atom   99 type  3   force =    -0.00012250   -0.00013726    0.00004437
     atom  100 type  3   force =     0.00016959    0.00003498   -0.00004739
     atom  101 type  3   force =    -0.00012690    0.00013423   -0.00000413
     atom  102 type  3   force =    -0.00005762   -0.00017472   -0.00004437
     atom  103 type  3   force =     0.00028552    0.00019324   -0.00018031
     atom  104 type  3   force =    -0.00030204    0.00013618   -0.00016432
     atom  105 type  3   force =     0.00003505   -0.00032274   -0.00016518
     atom  106 type  3   force =     0.00026896   -0.00019348    0.00016432
     atom  107 type  3   force =     0.00002459    0.00034389    0.00018031
     atom  108 type  3   force =    -0.00029703   -0.00013101    0.00016518
     atom  109 type  3   force =     0.00009707    0.00024083   -0.00001302
     atom  110 type  3   force =    -0.00023222   -0.00004566   -0.00001758
     atom  111 type  3   force =     0.00015312   -0.00017086   -0.00001420
     atom  112 type  3   force =     0.00007657   -0.00022394    0.00001758
     atom  113 type  3   force =     0.00016002    0.00020448    0.00001302
     atom  114 type  3   force =    -0.00022453    0.00004718    0.00001420
     atom  115 type  3   force =    -0.00004265   -0.00007479   -0.00009547
     atom  116 type  3   force =     0.00009532    0.00000066   -0.00009399
     atom  117 type  3   force =    -0.00004335    0.00007958   -0.00009665
     atom  118 type  3   force =    -0.00004709    0.00008288    0.00009399
     atom  119 type  3   force =    -0.00004344   -0.00007433    0.00009547
     atom  120 type  3   force =     0.00009060    0.00000225    0.00009665
     atom  121 type  3   force =    -0.00011210   -0.00024496    0.00019311
     atom  122 type  3   force =     0.00027225    0.00001636    0.00019120
     atom  123 type  3   force =    -0.00015135    0.00022630    0.00019060
     atom  124 type  3   force =    -0.00012196    0.00024396   -0.00019120
     atom  125 type  3   force =    -0.00015609   -0.00021956   -0.00019311
     atom  126 type  3   force =     0.00027165   -0.00001792   -0.00019060
     atom  127 type  4   force =    -0.00013296    0.00016382    0.00013243
     atom  128 type  4   force =    -0.00007685   -0.00019706    0.00013300
     atom  129 type  4   force =     0.00020920    0.00003322    0.00013388
     atom  130 type  4   force =    -0.00013224   -0.00016508   -0.00013300
     atom  131 type  4   force =     0.00020835   -0.00003324   -0.00013243
     atom  132 type  4   force =    -0.00007583    0.00019778   -0.00013388
     atom  133 type  4   force =    -0.00011022   -0.00002683    0.00007951
     atom  134 type  4   force =     0.00007616   -0.00008110    0.00008096
     atom  135 type  4   force =     0.00003671    0.00010762    0.00007803
     atom  136 type  4   force =    -0.00010831    0.00002541   -0.00008096
     atom  137 type  4   force =     0.00003188   -0.00010887   -0.00007951
     atom  138 type  4   force =     0.00007484    0.00008560   -0.00007803
     atom  139 type  4   force =     0.00083567    0.00006223   -0.00004267
     atom  140 type  4   force =    -0.00047119    0.00068996   -0.00004315
     atom  141 type  4   force =    -0.00036333   -0.00075513   -0.00004062
     atom  142 type  4   force =     0.00083312   -0.00006309    0.00004315
     atom  143 type  4   force =    -0.00036394    0.00075483    0.00004267
     atom  144 type  4   force =    -0.00047230   -0.00069221    0.00004062
     atom  145 type  4   force =    -0.00010505   -0.00013165   -0.00011027
     atom  146 type  4   force =     0.00016717   -0.00002616   -0.00011152
     atom  147 type  4   force =    -0.00006044    0.00015714   -0.00011247
     atom  148 type  4   force =    -0.00010624    0.00013170    0.00011152
     atom  149 type  4   force =    -0.00006149   -0.00015680    0.00011027
     atom  150 type  4   force =     0.00016631    0.00002623    0.00011247
     atom  151 type  4   force =    -0.00016617   -0.00002120    0.00007355
     atom  152 type  4   force =     0.00010188   -0.00013488    0.00007307
     atom  153 type  4   force =     0.00006515    0.00015741    0.00007317
     atom  154 type  4   force =    -0.00016775    0.00002079   -0.00007307
     atom  155 type  4   force =     0.00006472   -0.00015451   -0.00007355
     atom  156 type  4   force =     0.00010374    0.00013512   -0.00007317
     atom  157 type  4   force =     0.00010260    0.00016834   -0.00025083
     atom  158 type  4   force =    -0.00019639    0.00000429   -0.00025145
     atom  159 type  4   force =     0.00009648   -0.00017407   -0.00025164
     atom  160 type  4   force =     0.00010191   -0.00016793    0.00025145
     atom  161 type  4   force =     0.00009449    0.00017302    0.00025083
     atom  162 type  4   force =    -0.00019899   -0.00000348    0.00025164
     atom  163 type  4   force =    -0.00007763    0.00019567   -0.00009184
     atom  164 type  4   force =    -0.00013207   -0.00016552   -0.00008942
     atom  165 type  4   force =     0.00020983   -0.00002795   -0.00008674
     atom  166 type  4   force =    -0.00007731   -0.00019714    0.00008942
     atom  167 type  4   force =     0.00020827    0.00003060    0.00009184
     atom  168 type  4   force =    -0.00012912    0.00016774    0.00008674
     atom  169 type  4   force =     0.00001189    0.00016438    0.00012187
     atom  170 type  4   force =    -0.00013379   -0.00007138    0.00011816
     atom  171 type  4   force =     0.00013036   -0.00007636    0.00011698
     atom  172 type  4   force =     0.00000508   -0.00015156   -0.00011816
     atom  173 type  4   force =     0.00013642    0.00009248   -0.00012187
     atom  174 type  4   force =    -0.00013131    0.00007471   -0.00011698
     atom  175 type  4   force =    -0.00003091    0.00025296    0.00032217
     atom  176 type  4   force =    -0.00018489   -0.00016454    0.00032851
     atom  177 type  4   force =     0.00023642   -0.00008347    0.00031014
     atom  178 type  4   force =    -0.00005005   -0.00024239   -0.00032851
     atom  179 type  4   force =     0.00023452    0.00009971   -0.00032217
     atom  180 type  4   force =    -0.00019049    0.00016301   -0.00031014
     atom  181 type  4   force =     0.00014103    0.00005940   -0.00002931
     atom  182 type  4   force =    -0.00009904    0.00008853   -0.00003060
     atom  183 type  4   force =    -0.00003020   -0.00012727   -0.00002648
     atom  184 type  4   force =     0.00012619   -0.00004151    0.00003060
     atom  185 type  4   force =    -0.00001907    0.00015183    0.00002931
     atom  186 type  4   force =    -0.00009512   -0.00008979    0.00002648
     atom  187 type  4   force =     0.00014697   -0.00009097   -0.00013772
     atom  188 type  4   force =     0.00001350    0.00016138   -0.00012589
     atom  189 type  4   force =    -0.00015590   -0.00006109   -0.00013978
     atom  190 type  4   force =     0.00013301    0.00009238    0.00012589
     atom  191 type  4   force =    -0.00015226    0.00008179    0.00013772
     atom  192 type  4   force =     0.00002504   -0.00016556    0.00013978
     atom  193 type  4   force =     0.00004504   -0.00003247   -0.00020979
     atom  194 type  4   force =     0.00004638    0.00003003   -0.00022865
     atom  195 type  4   force =    -0.00005024    0.00000641   -0.00021810
     atom  196 type  4   force =     0.00000281    0.00005518    0.00022865
     atom  197 type  4   force =    -0.00005065    0.00002277    0.00020979
     atom  198 type  4   force =     0.00003067   -0.00004030    0.00021810
     atom  199 type  4   force =     0.00018289    0.00018021    0.00010842
     atom  200 type  4   force =    -0.00024739    0.00006755    0.00010888
     atom  201 type  4   force =     0.00006496   -0.00023994    0.00010652
     atom  202 type  4   force =     0.00018220   -0.00018047   -0.00010888
     atom  203 type  4   force =     0.00006462    0.00024849   -0.00010842
     atom  204 type  4   force =    -0.00024028   -0.00006371   -0.00010652
     atom  205 type  5   force =    -0.00002979   -0.00000045    0.00024576
     atom  206 type  5   force =     0.00002801   -0.00002593    0.00025043
     atom  207 type  5   force =     0.00000781    0.00003698    0.00024886
     atom  208 type  5   force =    -0.00003646    0.00001129   -0.00025043
     atom  209 type  5   force =     0.00001450   -0.00002602   -0.00024576
     atom  210 type  5   force =     0.00002812    0.00002525   -0.00024886
     atom  211 type  5   force =     0.00006134    0.00001520   -0.00006891
     atom  212 type  5   force =    -0.00004839    0.00004688   -0.00007313
     atom  213 type  5   force =    -0.00001684   -0.00005804   -0.00007051
     atom  214 type  5   force =     0.00006479   -0.00001847    0.00007313
     atom  215 type  5   force =    -0.00001750    0.00006072    0.00006891
     atom  216 type  5   force =    -0.00004184   -0.00004360    0.00007051
     atom  217 type  4   force =    -0.00009768   -0.00016918    0.00000000
     atom  218 type  2   force =    -0.00012457   -0.00016441    0.00012928
     atom  219 type  2   force =    -0.00008009   -0.00019009   -0.00012928

     Total force =     0.006502     Total SCF correction =     0.000072
     Energy error            =      5.0E-05 Ry
     Gradient error          =      1.2E-03 Ry/Bohr

     number of scf cycles    =  12
     number of bfgs steps    =  11

     energy             old  =   -2938.0869961525 Ry
     energy             new  =   -2938.0870459305 Ry

     CASE: energy            _new < energy            _old

     new trust radius        =       0.0035385974 bohr
     new conv_thr            =       0.0000000010 Ry


ATOMIC_POSITIONS (angstrom)
Mg              10.2313199325        5.4271623597        5.8291369825
Mg              12.1378911866        6.1470406542        1.1562887861
Mg              10.5612190681        7.4383288434        3.4927644988
Mg              -0.7454522286       13.5852424429        5.8529712139
Mg              -0.4155994923       11.5741641556        1.1801230175
Mg               1.1611722061       12.8654484295        3.5164955012
O               11.4511116694        4.4595613741        0.1806005816
O               12.3660381420        7.6871170551        2.5170367224
O                9.1133839733        6.8656982325        4.8534425869
O                0.4742195807       14.5528617026        4.4922232776
O               -1.8634623950       12.1467342944        6.8286594184
O                1.3891770974       11.3252711516        2.1558174131
O               10.8126955686        5.4831396051        2.6540637417
O               11.7988192052        6.6224458841        4.9904535696
O               10.3190289982        6.9068032022        0.3176103874
O               -0.1642032317       13.5293001084        2.0188064304
O               -0.6578095938       12.1056388483        4.3551962583
O                0.8219525329       12.3899428559        6.6916496126
O               10.2286962158        4.0565100720        4.2797273687
O               13.3262765253        6.8300459635        6.6161509279
O                9.3754742158        8.1257496498        1.9433380998
O               -0.7481449492       14.9559169905        0.3931090721
O               -1.6013073348       10.8865658065        2.7295326313
O                2.3493685136       12.1822736683        5.0659219002
H               10.5757574312        1.7582230252        3.7790724175
H               15.1431289566        8.2797698253        6.1154963890
H                7.2116330508        8.9744685750        1.4426477029
H               -0.4010734721       17.2542192818        0.8937636110
H               -3.7652129103       10.0379861123        3.2301875825
H                4.1663012460       10.7326917123        5.5666122971
H                0.8043351613       18.9800231109        0.0613385017
H               -5.8625165173       10.2189757395        2.3977432758
H                5.0582053673        8.8258948163        4.7341631504
H               11.7811508497        0.0323996356        4.6115167242
H               16.0350145978       10.1865862382        6.9479214983
H                5.1143464384        8.7934817538        2.2750968496
H               11.8724200757        2.2094322448        6.0382600140
H               14.1040108469        9.1771021957        1.3654212877
H                6.9540663053        7.6259224229        3.7018312433
H                0.8955982112       16.8029827865        5.6438387123
H               -4.0227855859       11.3865335124        0.9709999860
H                3.1272093930        9.8353592914        3.3074287567
H                2.7215684906       15.5489306401        1.4807844120
H               -3.8496644191       13.5949266524        3.8172267079
H                1.1281203717        8.8810773062        6.1535921087
H               13.6983840531        3.4635561432        3.1920332921
H               12.1049846907       10.1314127711        5.5284755880
H                7.1271783743        5.4175195535        0.8556678913
H                3.6235059016       14.1477701016        5.9004455357
H               -3.0870684097       15.0763492277        1.2276327285
H               -0.5360424335        8.8008106727        3.5639151080
H               14.6000356324        4.8646949479        5.7816272715
H               10.4405753641       10.2119332124        1.1088144643
H                7.8897468332        3.9361789715        3.4453448920
H                6.0031705106       13.6411470631        5.6359716456
H               -3.8380965265       17.3906185822        0.9631099656
H               -2.1648740250        6.9931495395        3.2994890467
H               16.9797657430        5.3714201969        6.0461500344
H                8.8119946382       12.0194716970        1.3732883544
H                7.1386821662        1.6217388681        3.7097709533
H                5.4009360200       14.8988699285        4.5349766291
H               -4.6264601186       16.2403261675        6.8714816429
H               -0.7744866925        6.8857029471        2.1985729767
H               16.3777650860        4.1135310915        0.1377783571
H               10.2023318358       12.1267827618        2.4742833709
H                6.3504370213        2.7721263229        4.8106870233
H                5.0348730992       16.4308835978        1.3645792791
H               -5.7699343334       15.1572638275        3.7010107926
H                0.7351478818        6.4368256155        6.0374671332
H               16.0115426932        2.5817222028        3.3082492074
H               11.7121260527       12.5757698076        5.6446807209
H                5.2068805619        3.8550695490        0.9717928668
H                5.6003186825       15.1512434260        2.4504527819
H               -4.9446673536       16.2868102014        4.7868923665
H               -0.6557031347        6.5868444666        0.1139974733
H               16.5771250577        3.8611975591        2.2223676335
H               10.3212023646       12.4256399612        4.5588072181
H                6.0322262062        2.7255666612        6.8952625267
H                7.2719862531       14.4039717872        0.8069041350
H               -5.1330227379       18.1080282389        3.1434307870
H               -2.1388098020        5.5134668951        5.4796994464
H               18.2485238363        4.6086860302        3.8658292130
H                8.8382123566       13.4997107248        6.2023558650
H                5.8442072950        0.9044698251        1.5295605536
H                7.5002160234       16.1243218506        1.1044327055
H               -6.7361881325       17.4449480624        3.4425590376
H               -0.7632309434        4.4563351318        5.7789301558
H               18.4758622560        2.8887639838        3.5667009624
H               10.2139643298       14.5575385354        5.9048272945
H                4.2409149037        1.5671901799        1.2303298442
H                6.2564963865       16.6763964201        6.0176345779
H               -6.5931117677       16.0923249483        1.3442519249
H                0.3370358526        5.2567668377        3.6808747618
H               17.2329180950        2.3363601933        5.6650080751
H               11.3139347502       13.7564830195        0.9916254221
H                4.3839756971        2.9202650291        3.3283852382
H                7.5686191045       15.5560558430        5.6318261471
H               -6.2787633656       17.7884317580        0.9580934597
H               -1.2895008150        4.6811889244        3.2943941412
H               18.5446154788        3.4566473000        6.0511665403
H                9.6876299905       14.3326443376        1.3774338529
H                4.6987789361        1.2238539982        3.7148658588
H                2.3365939409       13.9827446592        0.7862166751
H               -2.3007534638       14.0445295516        3.1226843178
H               -0.0356715170        9.9977152226        5.4590458375
H               13.3132961078        5.0297538282        3.8865756822
H               10.9411151190        9.0149220407        6.2230433249
H                8.6761111210        4.9679651713        1.5502141625
H                4.8339953890       13.4140324823        0.8761596702
H               -3.0568841385       16.4917396090        3.2125926949
H               -1.7769766039        8.1192906629        5.5489225673
H               15.8107075233        5.5985304841        3.7966673051
H                9.1998952024       10.8933790498        6.1331003298
H                7.9200002767        2.5207384505        1.4603374327
H                3.6978272112       13.1531280616        2.8503931465
H               -2.2629255819       15.6382181430        5.1868980392
H               -1.4347927225        9.2335062360        0.5139766721
H               14.6745569728        5.8593580306        1.8223619608
H                9.5420294350        9.7789763344        4.1588668535
H                8.7138473277        3.3741861711        6.4952833279
H                3.2874149620       14.6009149911        3.4774403783
H               -3.3115949987       14.5589196801        5.8139096305
H                0.0242639724        8.8650412527        1.1409634231
H               14.2641917940        4.4115344441        1.1953503695
H               11.0010558198       10.1474423654        3.5318196217
H                7.6652189443        4.4535338428        5.8682965769
C               11.3187964845        3.2782396895        0.8024201054
C               13.4552532172        8.1632019110        3.1388347251
C                8.1564768569        7.5709580369        5.4752593095
C                0.3419136227       15.7341920560        3.8704252749
C               -2.8203593914       11.4414851406        6.2068398946
C                2.4784035626       10.8491951819        1.5340006905
C               10.9497917744        3.1276073604        2.1857926176
C               13.7702180075        7.9189525936        4.5222047690
C                8.2105163033        7.9658321958        6.8586314822
C               -0.0270948863       15.8848349069        2.4870552310
C               -2.7663084600       11.0466015230        4.8234673824
C                2.7933548922       11.0934317947        0.1506285178
C               10.8743296059        1.8306292522        2.7408319299
C               14.9311501423        8.5021132144        5.0772477732
C                7.1250386861        8.6796785212        0.4044123281
C               -0.1025290416       17.1818119382        1.9320122268
C               -3.8517933656       10.3327603140        4.2684280701
C                3.9543027531       10.5103037656        6.6048476719
C               11.1664662312        0.6711495410        2.0163731563
C               15.7892095983        9.3348569464        4.3527835842
C                5.9748385238        9.0064263772        6.6892081143
C                0.1896184571       18.3412850910        2.6564764158
C               -5.0020005633       10.0060181972        4.9928868437
C                4.8123747782        9.6775751336        0.3200518857
C               11.5162508885        0.8365598251        0.6530036044
C               15.4710653612        9.5550593529        2.9894111001
C                5.9432070697        8.6208129292        5.3258374027
C                0.5393914537       18.1758653029        4.0198488999
C               -5.0336433839       10.3916457384        6.3562563956
C                4.4942394631        9.4573747668        1.6834225973
C               11.5762126497        2.0922330681        0.0660361733
C               14.3536401128        8.9791477032        2.4024448962
C                7.0006665117        7.9410362638        4.7388695716
C                0.5993499590       16.9201908260        4.6068151038
C               -3.9761793372       11.0714107684        6.9432238267
C                3.3768058810       10.0332731744        2.2703904284
C               10.6481360840        4.2775112491        3.0903064479
C               12.9251878944        7.0827749376        5.4267192622
C                9.3571759959        7.6520975543        0.7538887805
C               -0.3287309219       14.7349285340        1.5825407378
C               -1.6196346352       11.3603119763        3.9189535521
C                1.9483228764       11.9296008972        6.2553712195
C                4.4483124746       14.4489535271        0.7497356390
C               -3.7602236524       15.6402107362        3.0861481246
C               -0.6878627311        7.9359276047        5.4225596045
C               15.4249316443        4.5636561612        3.9231118754
C               10.2890045752       11.0768283706        6.2595243610
C                7.2166462738        3.3722572029        1.5867003955
C                5.5910218969       14.6685294670        5.5863380764
C               -4.5217260867       16.5199703323        0.9135629884
C               -1.0690269515        6.8366391653        3.2499084419
C               16.5675770210        4.3440555061        6.0956970116
C                9.9078082062       12.1762317293        1.4229219236
C                6.4552166693        2.4925150853        3.7593515581
C                6.6196708987       15.6536072787        6.1682700888
C               -5.8891596819       16.9183339189        1.4952991886
C               -0.7303531962        5.4533142385        3.8319115927
C               17.5962868044        3.3590050680        5.5139608114
C               10.2465861149       13.5596068022        0.8409899112
C                5.0878852635        2.0941526976        3.1773484073
C                5.4575941971       15.4188512217        1.3986991169
C               -5.1047337338       16.0292520284        3.7351797054
C               -0.3526100782        6.5770272795        6.0715369302
C               16.4341063272        3.5937969212        3.2740802946
C               10.6243197567       12.4358408290        5.6105608831
C                5.8721777445        2.9831443544        0.9377230698
C                6.8144037753       15.3914002862        0.6668486976
C               -5.7591043538       17.2179225973        3.0031666242
C               -1.0549016512        5.4158753441        5.3397760324
C               17.7907105465        3.6214306253        4.0060933758
C                9.9221417600       13.5971469241        6.3424113024
C                5.2177364573        1.7943660436        1.6694839676
C                3.0581121718       14.5119461222        1.4082283797
C               -3.1197890275       14.4047925912        3.7447165331
C                0.0618261630        9.1082658825        6.0810560608
C               14.0348108341        4.5005797434        3.2645434669
C               11.0386579143        9.9043758895        5.6010316203
C                7.8570765572        4.6076759691        0.9282039392
N                4.3080729903       14.7774899302        6.3202203968
N               -3.9746604361       15.3544571872        1.6474099333
N               -0.3331961320        7.8930868725        3.9837639693
N               15.2846802034        4.2350716845        5.3618500667
N               10.6436451886       11.1196456160        0.6890396032
N                7.0022118119        3.6579871215        3.0254960307
N                3.0080130246       13.9068241767        2.7834972499
N               -2.5707824245       14.6639921377        5.1199814689
N               -0.4371743660        9.4540880608        0.4470766145
N               13.9847809244        5.1056331816        1.8892785311
N               10.5396565107        9.5584277826        4.2257627501
N                8.4060676133        4.3484399235        6.5621833855
C               10.7025143297       18.5372985878        3.5046300000
O               10.7020564910       18.5374900329        2.3313544298
O               10.7029090454       18.5369978104        4.6779055702



     Writing config-only to output data dir ./tmp/c_MOF_CO2_free.save/ :
     XML data file
     NEW-OLD atomic charge density approx. for the potential

     Check: negative core charge=   -0.000001

     negative rho (up, down):  2.423E-07 0.000E+00

     total cpu time spent up to now is    10275.0 secs

     per-process dynamical memory:   368.5 Mb

     Self-consistent Calculation

     iteration #  1     ecut=    60.00 Ry     beta= 0.30
     Davidson diagonalization with overlap
     ethr =  1.00E-06,  avg # of iterations =  2.0

     Threshold (ethr) on eigenvalues was too large:
     Diagonalizing with lowered threshold

     Davidson diagonalization with overlap
     ethr =  4.11E-09,  avg # of iterations =  5.0

     negative rho (up, down):  2.450E-07 0.000E+00

     total cpu time spent up to now is    10437.8 secs

     total energy              =   -2938.08710164 Ry
     estimated scf accuracy    <       0.00003484 Ry

     iteration #  2     ecut=    60.00 Ry     beta= 0.30
     Davidson diagonalization with overlap
     ethr =  5.71E-09,  avg # of iterations =  1.0

     negative rho (up, down):  2.495E-07 0.000E+00

     total cpu time spent up to now is    10493.2 secs

     total energy              =   -2938.08710230 Ry
     estimated scf accuracy    <       0.00001491 Ry

     iteration #  3     ecut=    60.00 Ry     beta= 0.30
     Davidson diagonalization with overlap
     ethr =  2.44E-09,  avg # of iterations =  2.0

     negative rho (up, down):  2.500E-07 0.000E+00

     total cpu time spent up to now is    10566.7 secs

     total energy              =   -2938.08710404 Ry
     estimated scf accuracy    <       0.00000099 Ry

     iteration #  4     ecut=    60.00 Ry     beta= 0.30
     Davidson diagonalization with overlap
     ethr =  1.62E-10,  avg # of iterations =  4.0

     negative rho (up, down):  2.506E-07 0.000E+00

     total cpu time spent up to now is    10646.8 secs

     total energy              =   -2938.08710433 Ry
     estimated scf accuracy    <       0.00000023 Ry

     iteration #  5     ecut=    60.00 Ry     beta= 0.30
     Davidson diagonalization with overlap
     ethr =  3.79E-11,  avg # of iterations =  3.5

     negative rho (up, down):  2.509E-07 0.000E+00

     total cpu time spent up to now is    10713.0 secs

     total energy              =   -2938.08710434 Ry
     estimated scf accuracy    <       0.00000004 Ry

     iteration #  6     ecut=    60.00 Ry     beta= 0.30
     Davidson diagonalization with overlap
     ethr =  6.12E-12,  avg # of iterations =  6.5

     negative rho (up, down):  2.510E-07 0.000E+00

     total cpu time spent up to now is    10806.5 secs

     total energy              =   -2938.08710433 Ry
     estimated scf accuracy    <       0.00000004 Ry

     iteration #  7     ecut=    60.00 Ry     beta= 0.30
     Davidson diagonalization with overlap
     ethr =  5.87E-12,  avg # of iterations =  5.5

     negative rho (up, down):  2.510E-07 0.000E+00

     total cpu time spent up to now is    10893.0 secs

     total energy              =   -2938.08710435 Ry
     estimated scf accuracy    <       0.00000002 Ry

     iteration #  8     ecut=    60.00 Ry     beta= 0.30
     Davidson diagonalization with overlap
     ethr =  2.64E-12,  avg # of iterations =  5.5

     negative rho (up, down):  2.511E-07 0.000E+00

     total cpu time spent up to now is    10968.5 secs

     End of self-consistent calculation

          k = 0.0000 0.0000 0.0000 (154911 PWs)   bands (ev):

   -25.0781 -24.1324 -22.3620 -22.3620 -22.2205 -22.2205 -22.2202 -22.2202
   -20.4253 -20.4249 -20.4098 -20.4094 -20.4092 -20.4089 -19.9434 -19.9431
   -19.9264 -19.9263 -19.9261 -19.9259 -18.6520 -18.6511 -18.6506 -18.6496
   -18.6473 -18.6461 -18.0728 -18.0717 -18.0713 -18.0702 -18.0682 -18.0668
   -17.0314 -17.0227 -17.0223 -16.3886 -16.3673 -16.3669 -15.3478 -15.3477
   -15.3384 -15.2843 -15.2842 -15.2751 -14.7165 -14.7100 -14.7067 -14.7067
   -14.7057 -14.7014 -14.6113 -14.5566 -14.5561 -14.4442 -14.4353 -14.4349
   -14.2064 -14.2060 -14.1959 -13.0486 -12.9743 -12.9739 -12.6728 -12.6705
   -12.6639 -12.6579 -12.6562 -12.6513 -11.6163 -11.6151 -11.6086 -11.5936
   -11.5929 -11.5847 -11.5570 -11.5535 -11.5440 -11.1912 -11.1908 -11.1599
   -10.7240 -10.7216 -10.7151 -10.7087 -10.6981 -10.6950 -10.6828 -10.5971
   -10.5967 -10.2810 -10.2807 -10.2384  -9.8408  -9.7397  -9.6835  -9.6797
    -9.6741  -9.6383  -9.6345  -9.6291  -9.4636  -9.4633  -9.3779  -8.8777
    -8.8775  -8.7243  -8.6965  -8.6895  -8.6799  -8.6780  -8.6639  -8.6618
    -8.6498  -8.6492  -8.5065  -8.5061  -8.4134  -8.3613  -8.3585  -8.3385
    -8.2976  -8.2855  -8.2826  -8.0077  -8.0075  -7.8146  -7.6895  -7.6817
    -7.6815  -7.6062  -7.6058  -7.5364  -7.4536  -7.4535  -7.3999  -7.3463
    -7.3427  -7.3415  -7.3157  -7.3152  -7.2310  -7.2256  -7.2253  -7.2156
    -7.1690  -7.1690  -7.0758  -7.0716  -7.0613  -7.0608  -6.9933  -6.9931
    -6.8983  -6.8941  -6.8916  -6.8321  -6.8302  -6.6913  -6.6373  -6.5845
    -6.5841  -6.5277  -6.5115  -6.5081  -6.5021  -6.4856  -6.4839  -6.4532
    -6.4506  -6.4288  -6.4064  -6.3098  -6.2833  -6.1802  -6.1798  -6.1717
    -6.1696  -6.0935  -6.0916  -6.0661  -6.0542  -6.0540  -6.0352  -5.9937
    -5.9934  -5.9547  -5.9274  -5.9243  -5.9063  -5.6437  -5.6298  -5.6252
    -5.6227  -5.6173  -5.6143  -5.5147  -5.5141  -5.4127  -5.3889  -5.3884
    -5.3875  -5.3217  -5.3215  -5.2818  -5.2528  -5.2252  -5.2231  -5.2098
    -5.2003  -5.1986  -5.1109  -5.1096  -5.0931  -5.0715  -5.0684  -5.0227
    -5.0201  -5.0161  -4.9082  -4.9077  -4.8936  -4.7526  -4.7522  -4.6462
    -4.4366  -4.4355  -4.3739  -4.3717  -4.3500  -4.3400  -4.2858  -4.2710
    -4.2695  -4.2046  -4.2039  -4.1613  -4.1315  -4.1283  -4.1215  -4.1110
    -4.0847  -4.0792  -3.9536  -3.9506  -3.9371  -3.9238  -3.8754  -3.8716
    -3.8254  -3.8223  -3.7696  -3.7654  -3.7241  -3.7203  -3.7198  -3.6112
    -3.5888  -3.5873  -3.3835  -3.3831  -3.3723  -3.3720  -3.3445  -3.0812
    -3.0811  -3.0268  -3.0077  -2.9864  -2.9863  -2.7725  -2.7713  -2.6972
    -2.6962  -2.5568  -2.5527  -2.4592  -2.4591  -2.4523  -2.4520  -2.3897
    -2.3825  -2.1314  -2.1310  -2.1204  -2.1200  -2.0941  -2.0857  -1.9195
    -1.9193  -1.8926  -1.8924  -1.7389  -1.7388  -1.5244  -1.5240  -1.4538
    -1.2982  -1.2956  -1.2928  -1.2567  -1.2558  -1.2526  -0.6198  -0.6194
    -0.5429

          k = 0.0000 0.0000-1.5660 (154844 PWs)   bands (ev):

   -25.0780 -24.1326 -22.3027 -22.3027 -22.3023 -22.3023 -22.1895 -22.1894
   -20.4572 -20.4569 -20.4568 -20.4565 -20.3954 -20.3949 -19.9217 -19.9214
   -19.9213 -19.9210 -19.8977 -19.8975 -18.6159 -18.6147 -18.6133 -18.6121
   -18.6106 -18.6094 -18.1239 -18.1226 -18.1204 -18.1191 -18.1181 -18.1168
   -17.0125 -17.0123 -17.0117 -16.3767 -16.3764 -16.3740 -15.3430 -15.3430
   -15.3336 -15.2796 -15.2795 -15.2703 -14.7061 -14.7058 -14.7029 -14.7028
   -14.7007 -14.6977 -14.5721 -14.5717 -14.5578 -14.4871 -14.4867 -14.4818
   -14.1986 -14.1982 -14.1914 -13.0124 -13.0120 -12.9835 -12.6803 -12.6755
   -12.6720 -12.6671 -12.6618 -12.6584 -11.6099 -11.6094 -11.5653 -11.5410
   -11.5393 -11.5327 -11.4859 -11.4822 -11.4762 -11.1468 -11.1465 -11.0854
   -10.7550 -10.7534 -10.7486 -10.7295 -10.7274 -10.7226 -10.6076 -10.6072
   -10.5388 -10.2835 -10.2831 -10.2488  -9.8252  -9.6964  -9.6934  -9.6830
    -9.6576  -9.6575  -9.6423  -9.6422  -9.6366  -9.4891  -9.2003  -9.2000
    -8.8258  -8.7688  -8.7676  -8.7655  -8.7643  -8.7453  -8.7309  -8.7256
    -8.6491  -8.6485  -8.4387  -8.3430  -8.3427  -8.1359  -8.1332  -8.1198
    -8.0560  -8.0539  -8.0472  -7.9508  -7.8977  -7.8975  -7.8359  -7.8355
    -7.7706  -7.5896  -7.5055  -7.5052  -7.4477  -7.4445  -7.4437  -7.4049
    -7.3873  -7.3853  -7.3212  -7.3071  -7.2694  -7.2693  -7.2580  -7.1921
    -7.1895  -7.1724  -7.1562  -7.1529  -7.1124  -7.1104  -6.9361  -6.9102
    -6.8574  -6.8570  -6.7565  -6.7542  -6.7215  -6.6335  -6.6315  -6.6279
    -6.5710  -6.5706  -6.5466  -6.5022  -6.4789  -6.4786  -6.4447  -6.4423
    -6.3978  -6.3971  -6.3848  -6.3594  -6.3081  -6.3071  -6.2768  -6.2767
    -6.2577  -6.2573  -6.2267  -6.1808  -6.1774  -6.1769  -6.1025  -6.0868
    -6.0832  -6.0827  -6.0802  -6.0669  -6.0431  -6.0108  -5.9847  -5.9805
    -5.8667  -5.8337  -5.8283  -5.5515  -5.5511  -5.5319  -5.4844  -5.4056
    -5.4049  -5.3733  -5.3721  -5.3103  -5.2917  -5.2905  -5.2842  -5.2370
    -5.2002  -5.1994  -5.1148  -5.1138  -5.0604  -5.0588  -5.0544  -5.0094
    -5.0077  -5.0028  -4.7238  -4.7235  -4.7164  -4.6772  -4.6769  -4.5942
    -4.5048  -4.4099  -4.3845  -4.3835  -4.3612  -4.3607  -4.2617  -4.2614
    -4.2586  -4.1236  -4.1207  -4.1120  -4.0935  -4.0903  -4.0692  -4.0588
    -4.0560  -4.0549  -3.9614  -3.9266  -3.9228  -3.8881  -3.8856  -3.8110
    -3.8081  -3.6791  -3.5924  -3.5595  -3.5591  -3.4199  -3.4181  -3.4099
    -3.4022  -3.4001  -3.3911  -3.3582  -3.3576  -3.2810  -3.2807  -3.0130
    -2.9327  -2.9193  -2.9192  -2.8951  -2.8950  -2.8113  -2.7613  -2.7612
    -2.7236  -2.7233  -2.7088  -2.4359  -2.4315  -2.3950  -2.3948  -2.3878
    -2.3877  -2.2001  -2.1647  -2.1643  -2.1230  -2.0777  -2.0773  -1.9322
    -1.9320  -1.9176  -1.9175  -1.9110  -1.8783  -1.5099  -1.5095  -1.4520
    -1.2921  -1.2902  -1.2820  -1.2572  -1.2555  -1.2504  -0.5994  -0.5812
    -0.5808

     highest occupied level (ev):    -0.5429

!    total energy              =   -2938.08710434 Ry
     estimated scf accuracy    <          4.3E-10 Ry

     The total energy is the sum of the following terms:
     one-electron contribution =   -5749.73607907 Ry
     hartree contribution      =    3070.25970484 Ry
     xc contribution           =    -693.79720268 Ry
     ewald contribution        =    1355.08025177 Ry
     one-center paw contrib.   =    -919.89377920 Ry

     convergence has been achieved in   8 iterations

     negative rho (up, down):  2.511E-07 0.000E+00

     Forces acting on atoms (cartesian axes, Ry/au):

     atom    1 type  1   force =    -0.00004637   -0.00022726    0.00000666
     atom    2 type  1   force =     0.00022094    0.00008163    0.00000330
     atom    3 type  1   force =    -0.00018317    0.00016191    0.00000561
     atom    4 type  1   force =    -0.00003978    0.00023215   -0.00000330
     atom    5 type  1   force =    -0.00017363   -0.00015379   -0.00000666
     atom    6 type  1   force =     0.00023180   -0.00007767   -0.00000561
     atom    7 type  2   force =    -0.00035412   -0.00007329    0.00002821
     atom    8 type  2   force =     0.00024143   -0.00027020    0.00002826
     atom    9 type  2   force =     0.00011404    0.00034236    0.00002927
     atom   10 type  2   force =    -0.00035472    0.00007398   -0.00002826
     atom   11 type  2   force =     0.00011359   -0.00034332   -0.00002821
     atom   12 type  2   force =     0.00023947    0.00026994   -0.00002927
     atom   13 type  2   force =     0.00003810   -0.00070155   -0.00011861
     atom   14 type  2   force =     0.00058734    0.00038191   -0.00011684
     atom   15 type  2   force =    -0.00061935    0.00031478   -0.00011729
     atom   16 type  2   force =     0.00003707    0.00069961    0.00011684
     atom   17 type  2   force =    -0.00062660   -0.00031778    0.00011861
     atom   18 type  2   force =     0.00058229   -0.00037899    0.00011729
     atom   19 type  2   force =    -0.00008091    0.00015129    0.00053859
     atom   20 type  2   force =    -0.00009041   -0.00014729    0.00054012
     atom   21 type  2   force =     0.00017375   -0.00000792    0.00053506
     atom   22 type  2   force =    -0.00008235   -0.00015195   -0.00054012
     atom   23 type  2   force =     0.00017148    0.00000557   -0.00053859
     atom   24 type  2   force =    -0.00009374    0.00014651   -0.00053506
     atom   25 type  3   force =     0.00014738    0.00015306   -0.00034561
     atom   26 type  3   force =    -0.00020535    0.00005080   -0.00034639
     atom   27 type  3   force =     0.00005763   -0.00020437   -0.00034727
     atom   28 type  3   force =     0.00014667   -0.00015244    0.00034639
     atom   29 type  3   force =     0.00005886    0.00020416    0.00034561
     atom   30 type  3   force =    -0.00020580   -0.00005228    0.00034727
     atom   31 type  3   force =    -0.00019592    0.00008937   -0.00009138
     atom   32 type  3   force =     0.00002051   -0.00021466   -0.00009203
     atom   33 type  3   force =     0.00017640    0.00012592   -0.00009128
     atom   34 type  3   force =    -0.00019615   -0.00008957    0.00009203
     atom   35 type  3   force =     0.00017536   -0.00012499    0.00009138
     atom   36 type  3   force =     0.00002085    0.00021573    0.00009128
     atom   37 type  3   force =    -0.00033695   -0.00016643    0.00024935
     atom   38 type  3   force =     0.00031325   -0.00020969    0.00024952
     atom   39 type  3   force =     0.00002441    0.00037627    0.00024793
     atom   40 type  3   force =    -0.00033822    0.00016644   -0.00024952
     atom   41 type  3   force =     0.00002434   -0.00037502   -0.00024935
     atom   42 type  3   force =     0.00031365    0.00020927   -0.00024793
     atom   43 type  3   force =     0.00023600    0.00015167    0.00016408
     atom   44 type  3   force =    -0.00023619    0.00011881    0.00016524
     atom   45 type  3   force =     0.00001516   -0.00026037    0.00016506
     atom   46 type  3   force =     0.00022098   -0.00014514   -0.00016524
     atom   47 type  3   force =     0.00001335    0.00028022   -0.00016408
     atom   48 type  3   force =    -0.00023307   -0.00011705   -0.00016506
     atom   49 type  3   force =     0.00007231   -0.00007962    0.00019844
     atom   50 type  3   force =     0.00004051    0.00009877    0.00019656
     atom   51 type  3   force =    -0.00010486   -0.00001622    0.00020688
     atom   52 type  3   force =     0.00006528    0.00008447   -0.00019656
     atom   53 type  3   force =    -0.00010511    0.00002281   -0.00019844
     atom   54 type  3   force =     0.00003839   -0.00009892   -0.00020688
     atom   55 type  3   force =     0.00014231    0.00021603   -0.00051115
     atom   56 type  3   force =    -0.00024300    0.00000972   -0.00050200
     atom   57 type  3   force =     0.00011847   -0.00019494   -0.00050385
     atom   58 type  3   force =     0.00012992   -0.00020559    0.00050200
     atom   59 type  3   force =     0.00011594    0.00023126    0.00051115
     atom   60 type  3   force =    -0.00022805    0.00000513    0.00050385
     atom   61 type  3   force =     0.00041093   -0.00097931    0.00058243
     atom   62 type  3   force =     0.00065599    0.00083202    0.00058524
     atom   63 type  3   force =    -0.00105069    0.00016385    0.00057486
     atom   64 type  3   force =     0.00039256    0.00098411   -0.00058524
     atom   65 type  3   force =    -0.00105357   -0.00013378   -0.00058243
     atom   66 type  3   force =     0.00066724   -0.00082800   -0.00057486
     atom   67 type  3   force =     0.00018516    0.00004790    0.00029398
     atom   68 type  3   force =    -0.00012022    0.00011727    0.00029265
     atom   69 type  3   force =    -0.00005133   -0.00016234    0.00029110
     atom   70 type  3   force =     0.00016167   -0.00004548   -0.00029265
     atom   71 type  3   force =    -0.00005110    0.00018430   -0.00029398
     atom   72 type  3   force =    -0.00011492   -0.00012562   -0.00029110
     atom   73 type  3   force =    -0.00046448    0.00073783   -0.00030921
     atom   74 type  3   force =    -0.00038214   -0.00078486   -0.00031192
     atom   75 type  3   force =     0.00086762    0.00007207   -0.00031529
     atom   76 type  3   force =    -0.00048864   -0.00072338    0.00031192
     atom   77 type  3   force =     0.00087122   -0.00003333    0.00030921
     atom   78 type  3   force =    -0.00037139    0.00078742    0.00031529
     atom   79 type  3   force =     0.00017378   -0.00000787   -0.00008942
     atom   80 type  3   force =    -0.00009544    0.00015166   -0.00008638
     atom   81 type  3   force =    -0.00009918   -0.00013318   -0.00008974
     atom   82 type  3   force =     0.00017906   -0.00000682    0.00008638
     atom   83 type  3   force =    -0.00009370    0.00014656    0.00008942
     atom   84 type  3   force =    -0.00006574   -0.00015248    0.00008974
     atom   85 type  3   force =    -0.00007108    0.00033892   -0.00057859
     atom   86 type  3   force =    -0.00023678   -0.00020382   -0.00064333
     atom   87 type  3   force =     0.00028723   -0.00010416   -0.00063756
     atom   88 type  3   force =    -0.00005812   -0.00030697    0.00064333
     atom   89 type  3   force =     0.00032905    0.00010790    0.00057859
     atom   90 type  3   force =    -0.00023382    0.00019667    0.00063756
     atom   91 type  3   force =    -0.00005942   -0.00002234   -0.00035181
     atom   92 type  3   force =     0.00004647   -0.00003670   -0.00033157
     atom   93 type  3   force =     0.00000242    0.00006267   -0.00032829
     atom   94 type  3   force =    -0.00005502    0.00002190    0.00033157
     atom   95 type  3   force =     0.00001036   -0.00006263    0.00035181
     atom   96 type  3   force =     0.00005306    0.00003343    0.00032829
     atom   97 type  3   force =     0.00021823   -0.00000218    0.00007617
     atom   98 type  3   force =    -0.00011082    0.00018102    0.00012038
     atom   99 type  3   force =    -0.00011164   -0.00019555    0.00012108
     atom  100 type  3   force =     0.00021218   -0.00000546   -0.00012038
     atom  101 type  3   force =    -0.00011100    0.00018790   -0.00007617
     atom  102 type  3   force =    -0.00011353   -0.00019446   -0.00012108
     atom  103 type  3   force =     0.00036114    0.00022452   -0.00017902
     atom  104 type  3   force =    -0.00036957    0.00018948   -0.00016349
     atom  105 type  3   force =     0.00002306   -0.00040527   -0.00016295
     atom  106 type  3   force =     0.00034889   -0.00022532    0.00016349
     atom  107 type  3   force =     0.00001387    0.00042501    0.00017902
     atom  108 type  3   force =    -0.00036251   -0.00018267    0.00016295
     atom  109 type  3   force =     0.00013588    0.00019030   -0.00008744
     atom  110 type  3   force =    -0.00021026    0.00001281   -0.00009196
     atom  111 type  3   force =     0.00009155   -0.00017888   -0.00008788
     atom  112 type  3   force =     0.00011622   -0.00017568    0.00009196
     atom  113 type  3   force =     0.00009686    0.00021283    0.00008744
     atom  114 type  3   force =    -0.00020069   -0.00001015    0.00008788
     atom  115 type  3   force =    -0.00004296   -0.00009745   -0.00007274
     atom  116 type  3   force =     0.00011456    0.00001003   -0.00007212
     atom  117 type  3   force =    -0.00006250    0.00009245   -0.00007358
     atom  118 type  3   force =    -0.00004859    0.00010423    0.00007212
     atom  119 type  3   force =    -0.00006291   -0.00008592    0.00007274
     atom  120 type  3   force =     0.00011131   -0.00000790    0.00007358
     atom  121 type  3   force =    -0.00010117   -0.00020975    0.00022377
     atom  122 type  3   force =     0.00023379    0.00000733    0.00022312
     atom  123 type  3   force =    -0.00012547    0.00019956    0.00022223
     atom  124 type  3   force =    -0.00011055    0.00020613   -0.00022312
     atom  125 type  3   force =    -0.00013107   -0.00019249   -0.00022377
     atom  126 type  3   force =     0.00023556   -0.00000888   -0.00022223
     atom  127 type  4   force =    -0.00023009    0.00043400    0.00007259
     atom  128 type  4   force =    -0.00026253   -0.00041678    0.00007379
     atom  129 type  4   force =     0.00049004   -0.00001716    0.00007291
     atom  130 type  4   force =    -0.00022968   -0.00043575   -0.00007379
     atom  131 type  4   force =     0.00049090    0.00001774   -0.00007259
     atom  132 type  4   force =    -0.00025988    0.00041581   -0.00007291
     atom  133 type  4   force =     0.00001019   -0.00010634    0.00004445
     atom  134 type  4   force =     0.00008418    0.00006354    0.00004604
     atom  135 type  4   force =    -0.00009191    0.00004365    0.00004404
     atom  136 type  4   force =     0.00001294    0.00010467   -0.00004604
     atom  137 type  4   force =    -0.00009719   -0.00004435   -0.00004445
     atom  138 type  4   force =     0.00008376   -0.00005777   -0.00004404
     atom  139 type  4   force =     0.00058436    0.00003338   -0.00005598
     atom  140 type  4   force =    -0.00032147    0.00048750   -0.00005638
     atom  141 type  4   force =    -0.00026200   -0.00052324   -0.00005513
     atom  142 type  4   force =     0.00058292   -0.00003466    0.00005638
     atom  143 type  4   force =    -0.00026327    0.00052276    0.00005598
     atom  144 type  4   force =    -0.00032214   -0.00048852    0.00005513
     atom  145 type  4   force =     0.00010778   -0.00017906   -0.00017855
     atom  146 type  4   force =     0.00010131    0.00018114   -0.00018001
     atom  147 type  4   force =    -0.00020714   -0.00000381   -0.00017871
     atom  148 type  4   force =     0.00010622    0.00017831    0.00018001
     atom  149 type  4   force =    -0.00020896    0.00000381    0.00017855
     atom  150 type  4   force =     0.00010027   -0.00018129    0.00017871
     atom  151 type  4   force =    -0.00025889   -0.00013372    0.00020727
     atom  152 type  4   force =     0.00024647   -0.00015841    0.00020695
     atom  153 type  4   force =     0.00001527    0.00029261    0.00020506
     atom  154 type  4   force =    -0.00026042    0.00013425   -0.00020695
     atom  155 type  4   force =     0.00001364   -0.00029107   -0.00020727
     atom  156 type  4   force =     0.00024577    0.00015953   -0.00020506
     atom  157 type  4   force =     0.00016792    0.00007887   -0.00026557
     atom  158 type  4   force =    -0.00015270    0.00010574   -0.00026737
     atom  159 type  4   force =    -0.00001376   -0.00018435   -0.00026320
     atom  160 type  4   force =     0.00016792   -0.00007937    0.00026737
     atom  161 type  4   force =    -0.00001566    0.00018486    0.00026557
     atom  162 type  4   force =    -0.00015277   -0.00010409    0.00026320
     atom  163 type  4   force =     0.00003071    0.00040448   -0.00024101
     atom  164 type  4   force =    -0.00036588   -0.00017662   -0.00023940
     atom  165 type  4   force =     0.00033518   -0.00022453   -0.00023363
     atom  166 type  4   force =     0.00002998   -0.00040517    0.00023940
     atom  167 type  4   force =     0.00033493    0.00022884    0.00024101
     atom  168 type  4   force =    -0.00036204    0.00017801    0.00023363
     atom  169 type  4   force =     0.00005640    0.00011308    0.00001833
     atom  170 type  4   force =    -0.00010927   -0.00001270    0.00001636
     atom  171 type  4   force =     0.00006273   -0.00008624    0.00001372
     atom  172 type  4   force =     0.00004363   -0.00010098   -0.00001636
     atom  173 type  4   force =     0.00006973    0.00010539   -0.00001833
     atom  174 type  4   force =    -0.00010605    0.00001120   -0.00001372
     atom  175 type  4   force =     0.00004139   -0.00002058    0.00022588
     atom  176 type  4   force =     0.00001420    0.00003565    0.00022495
     atom  177 type  4   force =    -0.00003947   -0.00000674    0.00021337
     atom  178 type  4   force =     0.00002378    0.00003012   -0.00022495
     atom  179 type  4   force =    -0.00003852    0.00002555   -0.00022588
     atom  180 type  4   force =     0.00001389   -0.00003755   -0.00021337
     atom  181 type  4   force =     0.00012115    0.00008359    0.00000578
     atom  182 type  4   force =    -0.00011319    0.00005763    0.00001142
     atom  183 type  4   force =     0.00000430   -0.00012107    0.00000569
     atom  184 type  4   force =     0.00010651   -0.00006921   -0.00001142
     atom  185 type  4   force =     0.00001182    0.00014671   -0.00000578
     atom  186 type  4   force =    -0.00010700   -0.00005681   -0.00000569
     atom  187 type  4   force =     0.00004050    0.00014166   -0.00004423
     atom  188 type  4   force =    -0.00012956   -0.00005233   -0.00003309
     atom  189 type  4   force =     0.00010314   -0.00008188   -0.00004529
     atom  190 type  4   force =     0.00001946   -0.00013837    0.00003309
     atom  191 type  4   force =     0.00010243    0.00010590    0.00004423
     atom  192 type  4   force =    -0.00012248    0.00004838    0.00004529
     atom  193 type  4   force =     0.00006991   -0.00002939   -0.00021394
     atom  194 type  4   force =     0.00003503    0.00005030   -0.00022702
     atom  195 type  4   force =    -0.00006705   -0.00001682   -0.00022388
     atom  196 type  4   force =     0.00002604    0.00005549    0.00022702
     atom  197 type  4   force =    -0.00006040    0.00004585    0.00021394
     atom  198 type  4   force =     0.00001896   -0.00006647    0.00022388
     atom  199 type  4   force =     0.00011286    0.00012255    0.00010662
     atom  200 type  4   force =    -0.00015678    0.00003337    0.00010933
     atom  201 type  4   force =     0.00005192   -0.00014815    0.00010617
     atom  202 type  4   force =     0.00010729   -0.00011909   -0.00010933
     atom  203 type  4   force =     0.00004970    0.00015901   -0.00010662
     atom  204 type  4   force =    -0.00015426   -0.00002911   -0.00010617
     atom  205 type  5   force =    -0.00013199    0.00003657    0.00020300
     atom  206 type  5   force =     0.00004514   -0.00013672    0.00020894
     atom  207 type  5   force =     0.00009758    0.00010527    0.00020622
     atom  208 type  5   force =    -0.00014097   -0.00002927   -0.00020894
     atom  209 type  5   force =     0.00009766   -0.00009602   -0.00020300
     atom  210 type  5   force =     0.00004237    0.00013714   -0.00020622
     atom  211 type  5   force =     0.00005652   -0.00002668    0.00003761
     atom  212 type  5   force =    -0.00000567    0.00006710    0.00003429
     atom  213 type  5   force =    -0.00005230   -0.00003365    0.00003546
     atom  214 type  5   force =     0.00006094    0.00002863   -0.00003429
     atom  215 type  5   force =    -0.00005136    0.00003561   -0.00003761
     atom  216 type  5   force =    -0.00000299   -0.00006212   -0.00003546
     atom  217 type  4   force =    -0.00009929   -0.00017197    0.00000000
     atom  218 type  2   force =    -0.00012505   -0.00016214   -0.00046622
     atom  219 type  2   force =    -0.00007789   -0.00018936    0.00046622

     Total force =     0.006439     Total SCF correction =     0.000036
     Energy error            =      5.8E-05 Ry
     Gradient error          =      1.1E-03 Ry/Bohr

     number of scf cycles    =  13
     number of bfgs steps    =  12

     energy             old  =   -2938.0870459305 Ry
     energy             new  =   -2938.0871043429 Ry

     CASE: energy            _new < energy            _old

     new trust radius        =       0.0053078961 bohr
     new conv_thr            =       0.0000000010 Ry


ATOMIC_POSITIONS (angstrom)
Mg              10.2318909332        5.4266102332        5.8296110134
Mg              12.1380802692        6.1478134467        1.1567591645
Mg              10.5604511218        7.4381157930        3.4932438342
Mg              -0.7448775120       13.5857925896        5.8525008355
Mg              -0.4163631482       11.5743825934        1.1796489866
Mg               1.1613716722       12.8646768433        3.5160161658
O               11.4511832903        4.4598400592        0.1811779365
O               12.3657591322        7.6870388732        2.5176150059
O                9.1135916571        6.8654948776        4.8540222856
O                0.4742913781       14.5525809821        4.4916449941
O               -1.8632568570       12.1469356624        6.8280820635
O                1.3888971451       11.3253493336        2.1552377144
O               10.8120984680        5.4832081038        2.6537169138
O               11.7990593520        6.6218899179        4.9901074831
O               10.3193908425        6.9072864495        0.3172639121
O               -0.1648047860       13.5292300985        2.0191525169
O               -0.6574517218       12.1051559933        4.3555430862
O                0.8221901153       12.3904978459        6.6919960879
O               10.2276373636        4.0569453022        4.2795916042
O               13.3264265801        6.8289080748        6.6160187952
O                9.3763769159        8.1264306509        1.9432109291
O               -0.7492054171       14.9554779974        0.3932412048
O               -1.6004009883       10.8858664287        2.7296683958
O                2.3495069278       12.1833959300        5.0660490709
H               10.5772468296        1.7583661180        3.7792495542
H               15.1422623769        8.2809892952        6.1156732151
H                7.2110114974        8.9731092555        1.4428236633
H               -0.3995840903       17.2540785367        0.8935867849
H               -3.7658336874       10.0393475156        3.2300104458
H                4.1654348175       10.7314737715        5.5664363367
H                0.8036202811       18.9803218741        0.0611069324
H               -5.8624183415       10.2182036762        2.3975079033
H                5.0588242504        8.8263738245        4.7339276714
H               11.7804331354        0.0320986267        4.6117520967
H               16.0356307745       10.1861165154        6.9481530676
H                5.1144518301        8.7942572264        2.2753323286
H               11.8704826190        2.2095666541        6.0373346885
H               14.1048600618        9.1753540982        1.3644960278
H                6.9551542965        7.6275390808        3.7009026999
H                0.8936597069       16.8028441794        5.6447639722
H               -4.0217004556       11.3849228303        0.9719253115
H                3.1280654641        9.8371098483        3.3083573001
H                2.7215850844       15.5494068114        1.4816339148
H               -3.8500460256       13.5946883740        3.8180835274
H                1.1285209293        8.8808703815        6.1544353818
H               13.6983685013        3.4631065231        3.1911764726
H               12.1053887702       10.1316652273        5.5276260852
H                7.1267988935        5.4177629841        0.8548246182
H                3.6243563991       14.1470330760        5.9012947574
H               -3.0867973017       15.0773945737        1.2284795956
H               -0.5370664940        8.8005524934        3.5647655883
H               14.6008053746        4.8654524073        5.7807804044
H               10.4395118324       10.2123012520        1.1079652426
H                7.8900352737        3.9351630194        3.4444944117
H                6.0035877079       13.6416587325        5.6377110378
H               -3.8386728079       17.3906732930        0.9648533659
H               -2.1646429329        6.9926688615        3.3012291034
H               16.9801012646        5.3709484780        6.0444066341
H                8.8122291582       12.0200888352        1.3715489622
H                7.1381503408        1.6216986607        3.7080308966
H                5.4013864824       14.8964273495        4.5352885897
H               -4.6245135713       16.2418966956        6.8718211212
H               -0.7768182380        6.8866180634        2.1988956506
H               16.3781519297        4.1160021150        0.1374388788
H               10.1999912692       12.1259515842        2.4739714103
H                6.3523953081        2.7705647034        4.8103643494
H                5.0356887587       16.4311639472        1.3628053683
H               -5.7705102303       15.1577866175        3.6992166418
H                0.7349553306        6.4360565662        6.0356797174
H               16.0122833911        2.5814848564        3.3100433582
H               11.7119610127       12.5766163641        5.6464546317
H                5.2063108212        3.8545182701        0.9735802826
H                5.6010930585       15.1539432353        2.4504815579
H               -4.9473006945       16.2860957195        4.7869182853
H               -0.6537797223        6.5849479401        0.1140123250
H               16.5778229688        3.8585597781        2.2223417147
H               10.3231532801       12.4276604952        4.5587784421
H                6.0296220599        2.7262841220        6.8952476750
H                7.2736474399       14.4050552479        0.8069460625
H               -5.1347178381       18.1088588355        3.1434623612
H               -2.1387394214        5.5116654593        5.4797212387
H               18.2500907041        4.6076333287        3.8657976388
H                8.8383200677       13.5016910851        6.2023139375
H                5.8426120156        0.9036300587        1.5295387613
H                7.5002042493       16.1256077622        1.1035412227
H               -6.7371775494       17.4442735277        3.4417265910
H               -0.7622315599        4.4558297547        5.7780869333
H               18.4757728003        2.8875698563        3.5675334090
H               10.2150838489       14.5581712946        5.9057187773
H                4.2399775425        1.5678029829        1.2311730667
H                6.2571817523       16.6766967088        6.0163505995
H               -6.5936442538       16.0927364894        1.3429741745
H                0.3369128657        5.2561028363        3.6796014934
H               17.2335407431        2.3361048174        5.6662858255
H               11.3138521250       13.7572267081        0.9929094005
H                4.3834621484        2.9198265186        3.3296585066
H                7.5685925134       15.5554251585        5.6304849486
H               -6.2781312289       17.7886785941        0.9567583701
H               -1.2900531534        4.6816428826        3.2930427335
H               18.5445131768        3.4573181644        6.0525016299
H                9.6870970972       14.3323059668        1.3787750514
H                4.6994482445        1.2236026383        3.7162172665
H                2.3369404674       13.9837960822        0.7858852844
H               -2.3017840166       14.0442444430        3.1223924751
H               -0.0349030828        9.9969787437        5.4587385250
H               13.3135644729        5.0287187890        3.8868675249
H               10.9418524148        9.0157478529        6.2233747156
H                8.6750890945        4.9682624154        1.5505214750
H                4.8339590446       13.4144767422        0.8774475558
H               -3.0571641735       16.4914549397        3.2138763307
H               -1.7765891109        8.1192093594        5.5501961561
H               15.8106010099        5.5981456321        3.7953836693
H                9.2002981149       10.8935697046        6.1318124442
H                7.9197361193        2.5210333775        1.4590638439
H                3.6978465413       13.1528556364        2.8494377370
H               -2.2626758109       15.6383538551        5.1859595339
H               -1.4350307512        9.2336409129        0.5130199890
H               14.6745496174        5.8596421947        1.8233004661
H                9.5417838428        9.7788568623        4.1598222630
H                8.7140829757        3.3740473707        6.4962400110
H                3.2869605108       14.5998887326        3.4777702301
H               -3.3104644454       14.5590211652        5.8142430278
H                0.0236134255        8.8659658690        1.1412792480
H               14.2637144059        4.4125642745        1.1950169722
H               11.0003942795       10.1465356698        3.5314897699
H                7.6663449590        4.4534327608        5.8679807520
C               11.3188814706        3.2783922173        0.8025813382
C               13.4550795440        8.1631943748        3.1389959962
C                8.1565683919        7.5708081220        5.4754201858
C                0.3419939327       15.7340378825        3.8702640038
C               -2.8202697915       11.4416350047        6.2066786618
C                2.4782279650       10.8491994961        1.5338398142
C               10.9501188535        3.1277188935        2.1860370874
C               13.7699604566        7.9191735690        4.5224494973
C                8.2104512548        7.9654932212        6.8588775383
C               -0.0267747406       15.8847223490        2.4868105027
C               -2.7663754091       11.0469405482        4.8232229126
C                2.7930938558       11.0932059738        0.1503824617
C               10.8758726283        1.8307846025        2.7411278723
C               14.9302486576        8.5033655594        5.0775409408
C                7.1244030285        8.6782649942        0.4047062323
C               -0.1009937366       17.1816574020        1.9317190592
C               -3.8524303395       10.3341742857        4.2681321277
C                3.9533964315       10.5090465065        6.6045537677
C               11.1668045742        0.6712657747        2.0163525592
C               15.7889421622        9.3350881925        4.3527602951
C                5.9747722235        9.0060797853        6.6891856383
C                0.1899524402       18.3411691075        2.6564997049
C               -5.0020690735       10.0063693278        4.9929074408
C                4.8121077709        9.6773444199        0.3200743617
C               11.5158605676        0.8368681101        0.6527687319
C               15.4709960975        9.5545615190        2.9891729884
C                5.9436728716        8.6210034048        5.3255979384
C                0.5389949488       18.1755564018        4.0200870116
C               -5.0331812408       10.3914618531        6.3564912681
C                4.4941715189        9.4578734009        1.6836620616
C               11.5755420573        2.0925318287        0.0656391211
C               14.3537179091        8.9784112234        2.4020461837
C                7.0012628848        7.9414709102        4.7384720759
C                0.5986732506       16.9198899598        4.6072138163
C               -3.9755853067       11.0709793987        6.9436208789
C                3.3768841093       10.0340069718        2.2707879241
C               10.6476269289        4.2776551288        3.0902808255
C               12.9253181041        7.0822589954        5.4266963684
C                9.3575574797        7.6524615371        0.7538663557
C               -0.3292428459       14.7347833279        1.5825636316
C               -1.6192554543       11.3599429748        3.9189791745
C                1.9484473528       11.9301132633        6.2553936443
C                4.4486743200       14.4493819909        0.7503780138
C               -3.7607020690       15.6402835585        3.0867883933
C               -0.6876873971        7.9354972873        5.4231882571
C               15.4252339186        4.5632782514        3.9224716067
C               10.2891947131       11.0773559697        6.2588819862
C                7.2161859410        3.3721938879        1.5860717429
C                5.5912144527       14.6685794437        5.5871486392
C               -4.5217940361       16.5200685032        0.9143904585
C               -1.0690899488        6.8365541040        3.2507249640
C               16.5676960141        4.3440457456        6.0948695415
C                9.9077552094       12.1764234758        1.4221113608
C                6.4551745028        2.4924179974        3.7585350360
C                6.6200703978       15.6539042788        6.1676046665
C               -5.8895436141       16.9184877455        1.4946416657
C               -0.7303261327        5.4529230131        3.8312570733
C               17.5966119883        3.3587494862        5.5146183343
C               10.2466435750       13.5601012787        0.8416553335
C                5.0875329206        2.0939805226        3.1780029267
C                5.4583605670       15.4194002142        1.3981975537
C               -5.1055183306       16.0296015946        3.7346751315
C               -0.3525409949        6.5761916890        6.0710249408
C               16.4348013587        3.5932922236        3.2745848685
C               10.6244120132       12.4367790210        5.6110624463
C                5.8714195603        2.9827863870        0.9382350592
C                6.8151453774       15.3919462679        0.6662465002
C               -5.7598752682       17.2182382660        3.0025650397
C               -1.0548468937        5.4150857765        5.3391758572
C               17.7913693808        3.6209208281        4.0066949603
C                9.9222437929       13.5980621612        6.3430134998
C                5.2170252930        1.7940186812        1.6700841428
C                3.0583091875       14.5125488576        1.4084528628
C               -3.1203614727       14.4046385537        3.7449467745
C                0.0622522639        9.1078631142        6.0812777451
C               14.0349636563        4.5000069726        3.2643132255
C               11.0390813907        9.9048478778        5.6008071372
C                7.8565146992        4.6078435991        0.9279822549
N                4.3083405647       14.7774480917        6.3208406337
N               -3.9746852988       15.3546764688        1.6480401177
N               -0.3333747779        7.8929749136        3.9843840994
N               15.2848825382        4.2351597935        5.3612198823
N               10.6434751683       11.1198564230        0.6884193663
N                7.0022041757        3.6577764301        3.0248759006
N                3.0078974414       13.9064318528        2.7831060980
N               -2.5703650140       14.6640754672        5.1195995414
N               -0.4374530641        9.4544168403        0.4466888690
N               13.9846443846        5.1060363344        1.8896604586
N               10.5393745399        9.5581315227        4.2261539020
N                8.4064916938        4.3483629537        6.5625711310
C               10.7019869971       18.5363852210        3.5046300000
O               10.7014107485       18.5366292621        2.3314381411
O               10.7024864672       18.5360081956        4.6778218589



     Writing config-only to output data dir ./tmp/c_MOF_CO2_free.save/ :
     XML data file
     NEW-OLD atomic charge density approx. for the potential

     Check: negative core charge=   -0.000001

     negative rho (up, down):  2.379E-07 0.000E+00

     total cpu time spent up to now is    11003.8 secs

     per-process dynamical memory:   368.5 Mb

     Self-consistent Calculation

     iteration #  1     ecut=    60.00 Ry     beta= 0.30
     Davidson diagonalization with overlap
     ethr =  1.00E-06,  avg # of iterations =  2.0

     Threshold (ethr) on eigenvalues was too large:
     Diagonalizing with lowered threshold

     Davidson diagonalization with overlap
     ethr =  8.87E-09,  avg # of iterations =  5.0

     negative rho (up, down):  2.417E-07 0.000E+00

     total cpu time spent up to now is    11167.8 secs

     total energy              =   -2938.08717756 Ry
     estimated scf accuracy    <       0.00007470 Ry

     iteration #  2     ecut=    60.00 Ry     beta= 0.30
     Davidson diagonalization with overlap
     ethr =  1.22E-08,  avg # of iterations =  1.0

     negative rho (up, down):  2.481E-07 0.000E+00

     total cpu time spent up to now is    11226.2 secs

     total energy              =   -2938.08717897 Ry
     estimated scf accuracy    <       0.00003181 Ry

     iteration #  3     ecut=    60.00 Ry     beta= 0.30
     Davidson diagonalization with overlap
     ethr =  5.21E-09,  avg # of iterations =  2.0

     negative rho (up, down):  2.487E-07 0.000E+00

     total cpu time spent up to now is    11302.5 secs

     total energy              =   -2938.08718271 Ry
     estimated scf accuracy    <       0.00000216 Ry

     iteration #  4     ecut=    60.00 Ry     beta= 0.30
     Davidson diagonalization with overlap
     ethr =  3.53E-10,  avg # of iterations =  4.5

     negative rho (up, down):  2.498E-07 0.000E+00

     total cpu time spent up to now is    11384.6 secs

     total energy              =   -2938.08718336 Ry
     estimated scf accuracy    <       0.00000045 Ry

     iteration #  5     ecut=    60.00 Ry     beta= 0.30
     Davidson diagonalization with overlap
     ethr =  7.34E-11,  avg # of iterations =  4.5

     negative rho (up, down):  2.501E-07 0.000E+00

     total cpu time spent up to now is    11451.4 secs

     total energy              =   -2938.08718338 Ry
     estimated scf accuracy    <       0.00000006 Ry

     iteration #  6     ecut=    60.00 Ry     beta= 0.30
     Davidson diagonalization with overlap
     ethr =  1.06E-11,  avg # of iterations =  7.5

     negative rho (up, down):  2.503E-07 0.000E+00

     total cpu time spent up to now is    11551.3 secs

     total energy              =   -2938.08718337 Ry
     estimated scf accuracy    <       0.00000006 Ry

     iteration #  7     ecut=    60.00 Ry     beta= 0.30
     Davidson diagonalization with overlap
     ethr =  1.02E-11,  avg # of iterations =  5.0

     negative rho (up, down):  2.504E-07 0.000E+00

     total cpu time spent up to now is    11630.9 secs

     total energy              =   -2938.08718338 Ry
     estimated scf accuracy    <          3.5E-09 Ry

     iteration #  8     ecut=    60.00 Ry     beta= 0.30
     Davidson diagonalization with overlap
     ethr =  5.72E-13,  avg # of iterations =  7.5

     negative rho (up, down):  2.504E-07 0.000E+00

     total cpu time spent up to now is    11731.5 secs

     total energy              =   -2938.08718338 Ry
     estimated scf accuracy    <          1.1E-09 Ry

     iteration #  9     ecut=    60.00 Ry     beta= 0.30
     Davidson diagonalization with overlap
     ethr =  1.78E-13,  avg # of iterations =  5.0

     negative rho (up, down):  2.506E-07 0.000E+00

     total cpu time spent up to now is    11815.4 secs

     End of self-consistent calculation

          k = 0.0000 0.0000 0.0000 (154911 PWs)   bands (ev):

   -25.0790 -24.1334 -22.3619 -22.3619 -22.2204 -22.2204 -22.2201 -22.2201
   -20.4265 -20.4262 -20.4111 -20.4108 -20.4106 -20.4102 -19.9435 -19.9431
   -19.9264 -19.9263 -19.9261 -19.9259 -18.6534 -18.6524 -18.6519 -18.6509
   -18.6486 -18.6474 -18.0740 -18.0728 -18.0725 -18.0713 -18.0693 -18.0679
   -17.0314 -17.0228 -17.0223 -16.3891 -16.3677 -16.3673 -15.3483 -15.3483
   -15.3389 -15.2847 -15.2846 -15.2754 -14.7171 -14.7106 -14.7074 -14.7073
   -14.7064 -14.7020 -14.6113 -14.5565 -14.5560 -14.4447 -14.4358 -14.4354
   -14.2068 -14.2064 -14.1963 -13.0491 -12.9747 -12.9743 -12.6733 -12.6710
   -12.6644 -12.6584 -12.6567 -12.6518 -11.6166 -11.6154 -11.6089 -11.5940
   -11.5932 -11.5850 -11.5572 -11.5537 -11.5442 -11.1913 -11.1909 -11.1601
   -10.7249 -10.7226 -10.7160 -10.7089 -10.6991 -10.6959 -10.6837 -10.5973
   -10.5969 -10.2817 -10.2813 -10.2390  -9.8403  -9.7401  -9.6846  -9.6808
    -9.6751  -9.6393  -9.6355  -9.6300  -9.4640  -9.4637  -9.3784  -8.8783
    -8.8780  -8.7243  -8.6974  -8.6905  -8.6808  -8.6788  -8.6649  -8.6628
    -8.6505  -8.6499  -8.5068  -8.5065  -8.4137  -8.3618  -8.3591  -8.3390
    -8.2982  -8.2860  -8.2831  -8.0082  -8.0080  -7.8151  -7.6902  -7.6824
    -7.6822  -7.6071  -7.6067  -7.5368  -7.4540  -7.4539  -7.4007  -7.3468
    -7.3431  -7.3419  -7.3158  -7.3153  -7.2313  -7.2261  -7.2257  -7.2160
    -7.1697  -7.1697  -7.0760  -7.0721  -7.0616  -7.0612  -6.9939  -6.9937
    -6.8988  -6.8941  -6.8916  -6.8317  -6.8297  -6.6917  -6.6377  -6.5848
    -6.5844  -6.5274  -6.5111  -6.5077  -6.5019  -6.4857  -6.4840  -6.4529
    -6.4502  -6.4281  -6.4058  -6.3098  -6.2835  -6.1803  -6.1799  -6.1719
    -6.1698  -6.0937  -6.0919  -6.0666  -6.0546  -6.0544  -6.0356  -5.9941
    -5.9937  -5.9549  -5.9277  -5.9246  -5.9066  -5.6438  -5.6299  -5.6254
    -5.6229  -5.6175  -5.6145  -5.5150  -5.5144  -5.4133  -5.3893  -5.3889
    -5.3881  -5.3222  -5.3220  -5.2827  -5.2547  -5.2268  -5.2247  -5.2105
    -5.2016  -5.1999  -5.1109  -5.1096  -5.0926  -5.0712  -5.0682  -5.0222
    -5.0199  -5.0159  -4.9092  -4.9088  -4.8947  -4.7524  -4.7521  -4.6464
    -4.4368  -4.4357  -4.3734  -4.3713  -4.3494  -4.3396  -4.2868  -4.2715
    -4.2699  -4.2057  -4.2051  -4.1623  -4.1324  -4.1293  -4.1226  -4.1114
    -4.0850  -4.0796  -3.9542  -3.9512  -3.9381  -3.9244  -3.8755  -3.8717
    -3.8248  -3.8218  -3.7686  -3.7645  -3.7239  -3.7200  -3.7194  -3.6114
    -3.5886  -3.5871  -3.3833  -3.3829  -3.3729  -3.3727  -3.3452  -3.0815
    -3.0815  -3.0268  -3.0077  -2.9866  -2.9866  -2.7725  -2.7713  -2.6971
    -2.6960  -2.5569  -2.5528  -2.4595  -2.4594  -2.4526  -2.4523  -2.3906
    -2.3835  -2.1315  -2.1311  -2.1208  -2.1205  -2.0943  -2.0863  -1.9200
    -1.9198  -1.8934  -1.8931  -1.7393  -1.7387  -1.5248  -1.5244  -1.4542
    -1.2984  -1.2958  -1.2931  -1.2568  -1.2560  -1.2528  -0.6195  -0.6191
    -0.5426

          k = 0.0000 0.0000-1.5660 (154844 PWs)   bands (ev):

   -25.0789 -24.1335 -22.3026 -22.3026 -22.3023 -22.3022 -22.1894 -22.1894
   -20.4584 -20.4581 -20.4580 -20.4577 -20.3966 -20.3962 -19.9218 -19.9215
   -19.9214 -19.9211 -19.8977 -19.8976 -18.6174 -18.6162 -18.6148 -18.6136
   -18.6120 -18.6108 -18.1249 -18.1236 -18.1214 -18.1201 -18.1191 -18.1178
   -17.0125 -17.0124 -17.0118 -16.3772 -16.3768 -16.3745 -15.3435 -15.3435
   -15.3340 -15.2800 -15.2799 -15.2707 -14.7067 -14.7064 -14.7036 -14.7035
   -14.7014 -14.6984 -14.5720 -14.5716 -14.5576 -14.4877 -14.4873 -14.4824
   -14.1990 -14.1986 -14.1918 -13.0129 -13.0125 -12.9839 -12.6808 -12.6760
   -12.6726 -12.6676 -12.6623 -12.6589 -11.6102 -11.6098 -11.5657 -11.5415
   -11.5399 -11.5333 -11.4863 -11.4827 -11.4766 -11.1469 -11.1466 -11.0854
   -10.7558 -10.7543 -10.7495 -10.7303 -10.7282 -10.7235 -10.6076 -10.6073
   -10.5388 -10.2838 -10.2835 -10.2492  -9.8247  -9.6973  -9.6943  -9.6840
    -9.6583  -9.6580  -9.6431  -9.6431  -9.6375  -9.4896  -9.2008  -9.2005
    -8.8265  -8.7695  -8.7683  -8.7663  -8.7650  -8.7452  -8.7316  -8.7265
    -8.6498  -8.6492  -8.4388  -8.3428  -8.3426  -8.1368  -8.1340  -8.1206
    -8.0569  -8.0547  -8.0480  -7.9512  -7.8983  -7.8981  -7.8365  -7.8361
    -7.7712  -7.5902  -7.5062  -7.5058  -7.4481  -7.4447  -7.4439  -7.4047
    -7.3875  -7.3855  -7.3222  -7.3075  -7.2699  -7.2698  -7.2585  -7.1922
    -7.1897  -7.1725  -7.1563  -7.1530  -7.1129  -7.1109  -6.9361  -6.9107
    -6.8581  -6.8577  -6.7568  -6.7546  -6.7212  -6.6332  -6.6312  -6.6279
    -6.5712  -6.5708  -6.5468  -6.5024  -6.4797  -6.4794  -6.4443  -6.4419
    -6.3981  -6.3974  -6.3856  -6.3597  -6.3078  -6.3068  -6.2766  -6.2765
    -6.2577  -6.2574  -6.2269  -6.1809  -6.1785  -6.1780  -6.1022  -6.0862
    -6.0825  -6.0822  -6.0796  -6.0665  -6.0438  -6.0108  -5.9853  -5.9810
    -5.8673  -5.8343  -5.8289  -5.5519  -5.5515  -5.5330  -5.4855  -5.4070
    -5.4064  -5.3746  -5.3735  -5.3101  -5.2927  -5.2915  -5.2855  -5.2382
    -5.2007  -5.1999  -5.1148  -5.1138  -5.0601  -5.0584  -5.0541  -5.0089
    -5.0073  -5.0025  -4.7243  -4.7240  -4.7169  -4.6773  -4.6771  -4.5940
    -4.5048  -4.4098  -4.3846  -4.3836  -4.3609  -4.3603  -4.2625  -4.2622
    -4.2592  -4.1240  -4.1211  -4.1125  -4.0936  -4.0904  -4.0692  -4.0592
    -4.0566  -4.0554  -3.9621  -3.9276  -3.9238  -3.8890  -3.8864  -3.8120
    -3.8084  -3.6793  -3.5931  -3.5597  -3.5593  -3.4200  -3.4183  -3.4100
    -3.4024  -3.4003  -3.3914  -3.3586  -3.3580  -3.2813  -3.2811  -3.0129
    -2.9332  -2.9192  -2.9191  -2.8952  -2.8951  -2.8116  -2.7611  -2.7610
    -2.7234  -2.7231  -2.7085  -2.4361  -2.4317  -2.3953  -2.3952  -2.3882
    -2.3880  -2.2010  -2.1655  -2.1651  -2.1238  -2.0784  -2.0780  -1.9324
    -1.9321  -1.9177  -1.9176  -1.9107  -1.8780  -1.5103  -1.5100  -1.4523
    -1.2924  -1.2905  -1.2823  -1.2574  -1.2557  -1.2507  -0.5992  -0.5810
    -0.5806

     highest occupied level (ev):    -0.5426

!    total energy              =   -2938.08718339 Ry
     estimated scf accuracy    <          3.3E-10 Ry

     The total energy is the sum of the following terms:
     one-electron contribution =   -5749.30760346 Ry
     hartree contribution      =    3070.04131519 Ry
     xc contribution           =    -693.80478053 Ry
     ewald contribution        =    1354.87782724 Ry
     one-center paw contrib.   =    -919.89394184 Ry

     convergence has been achieved in   9 iterations

     negative rho (up, down):  2.506E-07 0.000E+00

     Forces acting on atoms (cartesian axes, Ry/au):

     atom    1 type  1   force =    -0.00014104   -0.00007076   -0.00004318
     atom    2 type  1   force =     0.00013268   -0.00008096   -0.00004403
     atom    3 type  1   force =     0.00000375    0.00016508   -0.00004340
     atom    4 type  1   force =    -0.00013645    0.00007442    0.00004403
     atom    5 type  1   force =     0.00000923   -0.00015752    0.00004318
     atom    6 type  1   force =     0.00014109    0.00008579    0.00004340
     atom    7 type  2   force =    -0.00032575   -0.00004910   -0.00007708
     atom    8 type  2   force =     0.00020567   -0.00025693   -0.00007598
     atom    9 type  2   force =     0.00011941    0.00030674   -0.00007661
     atom   10 type  2   force =    -0.00032534    0.00004965    0.00007598
     atom   11 type  2   force =     0.00012035   -0.00030665    0.00007708
     atom   12 type  2   force =     0.00020594    0.00025678    0.00007661
     atom   13 type  2   force =    -0.00000963   -0.00071160   -0.00000449
     atom   14 type  2   force =     0.00062019    0.00034771   -0.00000297
     atom   15 type  2   force =    -0.00060431    0.00036185   -0.00000506
     atom   16 type  2   force =    -0.00000897    0.00071096    0.00000297
     atom   17 type  2   force =    -0.00061145   -0.00036414    0.00000449
     atom   18 type  2   force =     0.00061553   -0.00034242    0.00000506
     atom   19 type  2   force =    -0.00000559    0.00002106    0.00045692
     atom   20 type  2   force =    -0.00001427   -0.00001558    0.00045704
     atom   21 type  2   force =     0.00002233   -0.00000534    0.00045208
     atom   22 type  2   force =    -0.00000636   -0.00002015   -0.00045704
     atom   23 type  2   force =     0.00002104    0.00000569   -0.00045692
     atom   24 type  2   force =    -0.00001579    0.00001667   -0.00045208
     atom   25 type  3   force =     0.00016704    0.00013330   -0.00018840
     atom   26 type  3   force =    -0.00019783    0.00007716   -0.00018966
     atom   27 type  3   force =     0.00003079   -0.00021224   -0.00019112
     atom   28 type  3   force =     0.00016574   -0.00013275    0.00018966
     atom   29 type  3   force =     0.00003192    0.00021132    0.00018840
     atom   30 type  3   force =    -0.00019920   -0.00007945    0.00019112
     atom   31 type  3   force =    -0.00021169    0.00003003   -0.00018745
     atom   32 type  3   force =     0.00008006   -0.00019863   -0.00018810
     atom   33 type  3   force =     0.00013438    0.00016882   -0.00018715
     atom   34 type  3   force =    -0.00021205   -0.00002998    0.00018810
     atom   35 type  3   force =     0.00013185   -0.00016831    0.00018745
     atom   36 type  3   force =     0.00007902    0.00020079    0.00018715
     atom   37 type  3   force =    -0.00031696   -0.00014115    0.00047255
     atom   38 type  3   force =     0.00028169   -0.00020525    0.00047249
     atom   39 type  3   force =     0.00003668    0.00034657    0.00047341
     atom   40 type  3   force =    -0.00031860    0.00014132   -0.00047249
     atom   41 type  3   force =     0.00003624   -0.00034507   -0.00047255
     atom   42 type  3   force =     0.00028180    0.00020505   -0.00047341
     atom   43 type  3   force =     0.00030095    0.00019821    0.00014502
     atom   44 type  3   force =    -0.00031117    0.00015226    0.00014553
     atom   45 type  3   force =     0.00002470   -0.00034079    0.00014637
     atom   46 type  3   force =     0.00028745   -0.00019336   -0.00014553
     atom   47 type  3   force =     0.00002118    0.00035974   -0.00014502
     atom   48 type  3   force =    -0.00030748   -0.00014900   -0.00014637
     atom   49 type  3   force =    -0.00002558   -0.00009237    0.00014702
     atom   50 type  3   force =     0.00010090    0.00002211    0.00014628
     atom   51 type  3   force =    -0.00007029    0.00007174    0.00015265
     atom   52 type  3   force =    -0.00003130    0.00009844   -0.00014628
     atom   53 type  3   force =    -0.00006721   -0.00006833   -0.00014702
     atom   54 type  3   force =     0.00009727   -0.00002501   -0.00015265
     atom   55 type  3   force =     0.00028536   -0.00016058   -0.00038511
     atom   56 type  3   force =     0.00001283    0.00032736   -0.00037481
     atom   57 type  3   force =    -0.00028239   -0.00013458   -0.00038033
     atom   58 type  3   force =     0.00027709    0.00017479    0.00037481
     atom   59 type  3   force =    -0.00028175    0.00016684    0.00038511
     atom   60 type  3   force =     0.00002464   -0.00031185    0.00038033
     atom   61 type  3   force =     0.00027235   -0.00070925    0.00049959
     atom   62 type  3   force =     0.00049223    0.00057362    0.00049014
     atom   63 type  3   force =    -0.00075013    0.00015058    0.00049015
     atom   64 type  3   force =     0.00025066    0.00071310   -0.00049014
     atom   65 type  3   force =    -0.00075041   -0.00011876   -0.00049959
     atom   66 type  3   force =     0.00050546   -0.00057434   -0.00049015
     atom   67 type  3   force =     0.00007583    0.00033950    0.00028079
     atom   68 type  3   force =    -0.00031390   -0.00012149    0.00028442
     atom   69 type  3   force =     0.00025719   -0.00021105    0.00027854
     atom   70 type  3   force =     0.00005173   -0.00033259   -0.00028442
     atom   71 type  3   force =     0.00025610    0.00023542   -0.00028079
     atom   72 type  3   force =    -0.00031137    0.00011721   -0.00027854
     atom   73 type  3   force =    -0.00044262    0.00055455   -0.00031849
     atom   74 type  3   force =    -0.00024033   -0.00067703   -0.00032531
     atom   75 type  3   force =     0.00069907    0.00014211   -0.00032196
     atom   76 type  3   force =    -0.00046616   -0.00054665    0.00032531
     atom   77 type  3   force =     0.00070156   -0.00010604    0.00031849
     atom   78 type  3   force =    -0.00022646    0.00067646    0.00032196
     atom   79 type  3   force =     0.00009570   -0.00003253   -0.00017807
     atom   80 type  3   force =    -0.00002342    0.00010817   -0.00017399
     atom   81 type  3   force =    -0.00009359   -0.00005262   -0.00017760
     atom   82 type  3   force =     0.00010539    0.00003380    0.00017399
     atom   83 type  3   force =    -0.00007602    0.00006661    0.00017807
     atom   84 type  3   force =     0.00000123   -0.00010736    0.00017760
     atom   85 type  3   force =     0.00003662    0.00039445   -0.00052106
     atom   86 type  3   force =    -0.00035735   -0.00014080   -0.00059131
     atom   87 type  3   force =     0.00028689   -0.00022989   -0.00058431
     atom   88 type  3   force =     0.00005674   -0.00037988    0.00059131
     atom   89 type  3   force =     0.00032329    0.00022894    0.00052106
     atom   90 type  3   force =    -0.00034253    0.00013351    0.00058431
     atom   91 type  3   force =    -0.00005110   -0.00001544   -0.00026941
     atom   92 type  3   force =     0.00003273   -0.00004072   -0.00025204
     atom   93 type  3   force =     0.00001194    0.00005473   -0.00024447
     atom   94 type  3   force =    -0.00005163    0.00000799    0.00025204
     atom   95 type  3   force =     0.00001218   -0.00005198    0.00026941
     atom   96 type  3   force =     0.00004143    0.00003770    0.00024447
     atom   97 type  3   force =     0.00021304    0.00005811    0.00017241
     atom   98 type  3   force =    -0.00015896    0.00014760    0.00021750
     atom   99 type  3   force =    -0.00006311   -0.00022358    0.00021979
     atom  100 type  3   force =     0.00020730   -0.00006387   -0.00021750
     atom  101 type  3   force =    -0.00005620    0.00021355   -0.00017241
     atom  102 type  3   force =    -0.00016207   -0.00016645   -0.00021979
     atom  103 type  3   force =     0.00035943    0.00021290   -0.00020195
     atom  104 type  3   force =    -0.00035650    0.00019700   -0.00019186
     atom  105 type  3   force =     0.00001124   -0.00039830   -0.00018730
     atom  106 type  3   force =     0.00034886   -0.00021024    0.00019186
     atom  107 type  3   force =     0.00000466    0.00041773    0.00020195
     atom  108 type  3   force =    -0.00035056   -0.00018942    0.00018730
     atom  109 type  3   force =     0.00020710    0.00009182   -0.00016401
     atom  110 type  3   force =    -0.00016600    0.00012203   -0.00016766
     atom  111 type  3   force =    -0.00002717   -0.00019231   -0.00016389
     atom  112 type  3   force =     0.00018868   -0.00008274    0.00016766
     atom  113 type  3   force =    -0.00002403    0.00022526    0.00016401
     atom  114 type  3   force =    -0.00015296   -0.00011968    0.00016389
     atom  115 type  3   force =    -0.00002166   -0.00014109   -0.00003014
     atom  116 type  3   force =     0.00014163    0.00005391   -0.00002999
     atom  117 type  3   force =    -0.00011204    0.00009667   -0.00003019
     atom  118 type  3   force =    -0.00002412    0.00014961    0.00002999
     atom  119 type  3   force =    -0.00011136   -0.00008930    0.00003014
     atom  120 type  3   force =     0.00013974   -0.00004869    0.00003019
     atom  121 type  3   force =    -0.00007167   -0.00015650    0.00025076
     atom  122 type  3   force =     0.00017385    0.00000700    0.00024859
     atom  123 type  3   force =    -0.00009432    0.00014841    0.00024976
     atom  124 type  3   force =    -0.00008087    0.00015406   -0.00024859
     atom  125 type  3   force =    -0.00009970   -0.00014032   -0.00025076
     atom  126 type  3   force =     0.00017569   -0.00000748   -0.00024976
     atom  127 type  4   force =    -0.00029999    0.00050888    0.00002274
     atom  128 type  4   force =    -0.00029262   -0.00051491    0.00002430
     atom  129 type  4   force =     0.00058974    0.00000709    0.00002592
     atom  130 type  4   force =    -0.00029961   -0.00051087   -0.00002430
     atom  131 type  4   force =     0.00059070   -0.00000535   -0.00002274
     atom  132 type  4   force =    -0.00028873    0.00051427   -0.00002592
     atom  133 type  4   force =     0.00016114   -0.00011841   -0.00000429
     atom  134 type  4   force =     0.00001913    0.00020110   -0.00000289
     atom  135 type  4   force =    -0.00017659   -0.00008214   -0.00000713
     atom  136 type  4   force =     0.00016459    0.00011711    0.00000289
     atom  137 type  4   force =    -0.00018311    0.00008035    0.00000429
     atom  138 type  4   force =     0.00001716   -0.00019400    0.00000713
     atom  139 type  4   force =     0.00016071    0.00001914   -0.00006120
     atom  140 type  4   force =    -0.00009851    0.00012860   -0.00006025
     atom  141 type  4   force =    -0.00006280   -0.00014720   -0.00005727
     atom  142 type  4   force =     0.00016063   -0.00002101    0.00006025
     atom  143 type  4   force =    -0.00006379    0.00014875    0.00006120
     atom  144 type  4   force =    -0.00009608   -0.00012799    0.00005727
     atom  145 type  4   force =     0.00037072   -0.00030825   -0.00012002
     atom  146 type  4   force =     0.00008148    0.00047327   -0.00012214
     atom  147 type  4   force =    -0.00045045   -0.00016810   -0.00012254
     atom  148 type  4   force =     0.00036912    0.00030720    0.00012214
     atom  149 type  4   force =    -0.00045231    0.00016693    0.00012002
     atom  150 type  4   force =     0.00007965   -0.00047415    0.00012254
     atom  151 type  4   force =    -0.00029278   -0.00017474    0.00024311
     atom  152 type  4   force =     0.00029745   -0.00016771    0.00024274
     atom  153 type  4   force =    -0.00000540    0.00034356    0.00024504
     atom  154 type  4   force =    -0.00029397    0.00017374   -0.00024274
     atom  155 type  4   force =    -0.00000494   -0.00034092   -0.00024311
     atom  156 type  4   force =     0.00030023    0.00016710   -0.00024504
     atom  157 type  4   force =     0.00015401   -0.00001135   -0.00019893
     atom  158 type  4   force =    -0.00006706    0.00013919   -0.00019967
     atom  159 type  4   force =    -0.00008339   -0.00012840   -0.00020086
     atom  160 type  4   force =     0.00015407    0.00001152    0.00019967
     atom  161 type  4   force =    -0.00008684    0.00012770    0.00019893
     atom  162 type  4   force =    -0.00006950   -0.00013642    0.00020086
     atom  163 type  4   force =     0.00016279    0.00048882   -0.00030519
     atom  164 type  4   force =    -0.00050465   -0.00010523   -0.00030484
     atom  165 type  4   force =     0.00034005   -0.00037953   -0.00029741
     atom  166 type  4   force =     0.00016119   -0.00048965    0.00030484
     atom  167 type  4   force =     0.00034194    0.00038540    0.00030519
     atom  168 type  4   force =    -0.00049871    0.00010473    0.00029741
     atom  169 type  4   force =     0.00003686    0.00012518   -0.00007749
     atom  170 type  4   force =    -0.00010543   -0.00004055   -0.00008027
     atom  171 type  4   force =     0.00008749   -0.00007122   -0.00008060
     atom  172 type  4   force =     0.00001760   -0.00011158    0.00008027
     atom  173 type  4   force =     0.00008998    0.00009451    0.00007749
     atom  174 type  4   force =    -0.00010542    0.00004016    0.00008060
     atom  175 type  4   force =     0.00007045   -0.00024349   -0.00008205
     atom  176 type  4   force =     0.00019108    0.00017440   -0.00008496
     atom  177 type  4   force =    -0.00024357    0.00008154   -0.00010133
     atom  178 type  4   force =     0.00005550    0.00025268    0.00008496
     atom  179 type  4   force =    -0.00024609   -0.00006073    0.00008205
     atom  180 type  4   force =     0.00019240   -0.00017017    0.00010133
     atom  181 type  4   force =     0.00012698   -0.00003159    0.00003199
     atom  182 type  4   force =    -0.00002454    0.00012666    0.00003937
     atom  183 type  4   force =    -0.00010121   -0.00007066    0.00002853
     atom  184 type  4   force =     0.00012196    0.00004208   -0.00003937
     atom  185 type  4   force =    -0.00009084    0.00009418   -0.00003199
     atom  186 type  4   force =    -0.00001059   -0.00012298   -0.00002853
     atom  187 type  4   force =    -0.00000043    0.00026468    0.00011156
     atom  188 type  4   force =    -0.00021145   -0.00015133    0.00012711
     atom  189 type  4   force =     0.00022723   -0.00010588    0.00011461
     atom  190 type  4   force =    -0.00002533   -0.00025878   -0.00012711
     atom  191 type  4   force =     0.00022944    0.00013196   -0.00011156
     atom  192 type  4   force =    -0.00020531    0.00014385   -0.00011461
     atom  193 type  4   force =     0.00005971    0.00013219   -0.00017187
     atom  194 type  4   force =    -0.00009087   -0.00003072   -0.00017799
     atom  195 type  4   force =     0.00007562   -0.00009562   -0.00018066
     atom  196 type  4   force =     0.00001883   -0.00009406    0.00017799
     atom  197 type  4   force =     0.00008462    0.00011780    0.00017187
     atom  198 type  4   force =    -0.00012062    0.00001767    0.00018066
     atom  199 type  4   force =     0.00013328    0.00014802    0.00016738
     atom  200 type  4   force =    -0.00018809    0.00003155    0.00017727
     atom  201 type  4   force =     0.00006573   -0.00017613    0.00016972
     atom  202 type  4   force =     0.00012137   -0.00014711   -0.00017727
     atom  203 type  4   force =     0.00006154    0.00018944   -0.00016738
     atom  204 type  4   force =    -0.00018540   -0.00003114   -0.00016972
     atom  205 type  5   force =    -0.00011009    0.00007086    0.00012230
     atom  206 type  5   force =     0.00000224   -0.00014125    0.00012544
     atom  207 type  5   force =     0.00012530    0.00006899    0.00012506
     atom  208 type  5   force =    -0.00012345   -0.00006868   -0.00012544
     atom  209 type  5   force =     0.00011641   -0.00005991   -0.00012230
     atom  210 type  5   force =    -0.00000290    0.00014300   -0.00012506
     atom  211 type  5   force =     0.00001520   -0.00007052    0.00014858
     atom  212 type  5   force =     0.00005435    0.00004836    0.00015249
     atom  213 type  5   force =    -0.00006785    0.00002426    0.00014914
     atom  214 type  5   force =     0.00001471    0.00007125   -0.00015249
     atom  215 type  5   force =    -0.00006867   -0.00002210   -0.00014858
     atom  216 type  5   force =     0.00005494   -0.00004663   -0.00014914
     atom  217 type  4   force =    -0.00010211   -0.00017686    0.00000000
     atom  218 type  2   force =    -0.00012450   -0.00015996   -0.00079006
     atom  219 type  2   force =    -0.00007628   -0.00018780    0.00079006

     Total force =     0.006162     Total SCF correction =     0.000026
     Energy error            =      7.9E-05 Ry
     Gradient error          =      7.9E-04 Ry/Bohr

     bfgs converged in  14 scf cycles and  13 bfgs steps
     (criteria: energy <  1.0E-04 Ry, force <  1.0E-03 Ry/Bohr)

     End of BFGS Geometry Optimization

     Final energy             =   -2938.0871833935 Ry

     File ./tmp/c_MOF_CO2_free.bfgs deleted, as requested
Begin final coordinates

ATOMIC_POSITIONS (angstrom)
Mg              10.2318909332        5.4266102332        5.8296110134
Mg              12.1380802692        6.1478134467        1.1567591645
Mg              10.5604511218        7.4381157930        3.4932438342
Mg              -0.7448775120       13.5857925896        5.8525008355
Mg              -0.4163631482       11.5743825934        1.1796489866
Mg               1.1613716722       12.8646768433        3.5160161658
O               11.4511832903        4.4598400592        0.1811779365
O               12.3657591322        7.6870388732        2.5176150059
O                9.1135916571        6.8654948776        4.8540222856
O                0.4742913781       14.5525809821        4.4916449941
O               -1.8632568570       12.1469356624        6.8280820635
O                1.3888971451       11.3253493336        2.1552377144
O               10.8120984680        5.4832081038        2.6537169138
O               11.7990593520        6.6218899179        4.9901074831
O               10.3193908425        6.9072864495        0.3172639121
O               -0.1648047860       13.5292300985        2.0191525169
O               -0.6574517218       12.1051559933        4.3555430862
O                0.8221901153       12.3904978459        6.6919960879
O               10.2276373636        4.0569453022        4.2795916042
O               13.3264265801        6.8289080748        6.6160187952
O                9.3763769159        8.1264306509        1.9432109291
O               -0.7492054171       14.9554779974        0.3932412048
O               -1.6004009883       10.8858664287        2.7296683958
O                2.3495069278       12.1833959300        5.0660490709
H               10.5772468296        1.7583661180        3.7792495542
H               15.1422623769        8.2809892952        6.1156732151
H                7.2110114974        8.9731092555        1.4428236633
H               -0.3995840903       17.2540785367        0.8935867849
H               -3.7658336874       10.0393475156        3.2300104458
H                4.1654348175       10.7314737715        5.5664363367
H                0.8036202811       18.9803218741        0.0611069324
H               -5.8624183415       10.2182036762        2.3975079033
H                5.0588242504        8.8263738245        4.7339276714
H               11.7804331354        0.0320986267        4.6117520967
H               16.0356307745       10.1861165154        6.9481530676
H                5.1144518301        8.7942572264        2.2753323286
H               11.8704826190        2.2095666541        6.0373346885
H               14.1048600618        9.1753540982        1.3644960278
H                6.9551542965        7.6275390808        3.7009026999
H                0.8936597069       16.8028441794        5.6447639722
H               -4.0217004556       11.3849228303        0.9719253115
H                3.1280654641        9.8371098483        3.3083573001
H                2.7215850844       15.5494068114        1.4816339148
H               -3.8500460256       13.5946883740        3.8180835274
H                1.1285209293        8.8808703815        6.1544353818
H               13.6983685013        3.4631065231        3.1911764726
H               12.1053887702       10.1316652273        5.5276260852
H                7.1267988935        5.4177629841        0.8548246182
H                3.6243563991       14.1470330760        5.9012947574
H               -3.0867973017       15.0773945737        1.2284795956
H               -0.5370664940        8.8005524934        3.5647655883
H               14.6008053746        4.8654524073        5.7807804044
H               10.4395118324       10.2123012520        1.1079652426
H                7.8900352737        3.9351630194        3.4444944117
H                6.0035877079       13.6416587325        5.6377110378
H               -3.8386728079       17.3906732930        0.9648533659
H               -2.1646429329        6.9926688615        3.3012291034
H               16.9801012646        5.3709484780        6.0444066341
H                8.8122291582       12.0200888352        1.3715489622
H                7.1381503408        1.6216986607        3.7080308966
H                5.4013864824       14.8964273495        4.5352885897
H               -4.6245135713       16.2418966956        6.8718211212
H               -0.7768182380        6.8866180634        2.1988956506
H               16.3781519297        4.1160021150        0.1374388788
H               10.1999912692       12.1259515842        2.4739714103
H                6.3523953081        2.7705647034        4.8103643494
H                5.0356887587       16.4311639472        1.3628053683
H               -5.7705102303       15.1577866175        3.6992166418
H                0.7349553306        6.4360565662        6.0356797174
H               16.0122833911        2.5814848564        3.3100433582
H               11.7119610127       12.5766163641        5.6464546317
H                5.2063108212        3.8545182701        0.9735802826
H                5.6010930585       15.1539432353        2.4504815579
H               -4.9473006945       16.2860957195        4.7869182853
H               -0.6537797223        6.5849479401        0.1140123250
H               16.5778229688        3.8585597781        2.2223417147
H               10.3231532801       12.4276604952        4.5587784421
H                6.0296220599        2.7262841220        6.8952476750
H                7.2736474399       14.4050552479        0.8069460625
H               -5.1347178381       18.1088588355        3.1434623612
H               -2.1387394214        5.5116654593        5.4797212387
H               18.2500907041        4.6076333287        3.8657976388
H                8.8383200677       13.5016910851        6.2023139375
H                5.8426120156        0.9036300587        1.5295387613
H                7.5002042493       16.1256077622        1.1035412227
H               -6.7371775494       17.4442735277        3.4417265910
H               -0.7622315599        4.4558297547        5.7780869333
H               18.4757728003        2.8875698563        3.5675334090
H               10.2150838489       14.5581712946        5.9057187773
H                4.2399775425        1.5678029829        1.2311730667
H                6.2571817523       16.6766967088        6.0163505995
H               -6.5936442538       16.0927364894        1.3429741745
H                0.3369128657        5.2561028363        3.6796014934
H               17.2335407431        2.3361048174        5.6662858255
H               11.3138521250       13.7572267081        0.9929094005
H                4.3834621484        2.9198265186        3.3296585066
H                7.5685925134       15.5554251585        5.6304849486
H               -6.2781312289       17.7886785941        0.9567583701
H               -1.2900531534        4.6816428826        3.2930427335
H               18.5445131768        3.4573181644        6.0525016299
H                9.6870970972       14.3323059668        1.3787750514
H                4.6994482445        1.2236026383        3.7162172665
H                2.3369404674       13.9837960822        0.7858852844
H               -2.3017840166       14.0442444430        3.1223924751
H               -0.0349030828        9.9969787437        5.4587385250
H               13.3135644729        5.0287187890        3.8868675249
H               10.9418524148        9.0157478529        6.2233747156
H                8.6750890945        4.9682624154        1.5505214750
H                4.8339590446       13.4144767422        0.8774475558
H               -3.0571641735       16.4914549397        3.2138763307
H               -1.7765891109        8.1192093594        5.5501961561
H               15.8106010099        5.5981456321        3.7953836693
H                9.2002981149       10.8935697046        6.1318124442
H                7.9197361193        2.5210333775        1.4590638439
H                3.6978465413       13.1528556364        2.8494377370
H               -2.2626758109       15.6383538551        5.1859595339
H               -1.4350307512        9.2336409129        0.5130199890
H               14.6745496174        5.8596421947        1.8233004661
H                9.5417838428        9.7788568623        4.1598222630
H                8.7140829757        3.3740473707        6.4962400110
H                3.2869605108       14.5998887326        3.4777702301
H               -3.3104644454       14.5590211652        5.8142430278
H                0.0236134255        8.8659658690        1.1412792480
H               14.2637144059        4.4125642745        1.1950169722
H               11.0003942795       10.1465356698        3.5314897699
H                7.6663449590        4.4534327608        5.8679807520
C               11.3188814706        3.2783922173        0.8025813382
C               13.4550795440        8.1631943748        3.1389959962
C                8.1565683919        7.5708081220        5.4754201858
C                0.3419939327       15.7340378825        3.8702640038
C               -2.8202697915       11.4416350047        6.2066786618
C                2.4782279650       10.8491994961        1.5338398142
C               10.9501188535        3.1277188935        2.1860370874
C               13.7699604566        7.9191735690        4.5224494973
C                8.2104512548        7.9654932212        6.8588775383
C               -0.0267747406       15.8847223490        2.4868105027
C               -2.7663754091       11.0469405482        4.8232229126
C                2.7930938558       11.0932059738        0.1503824617
C               10.8758726283        1.8307846025        2.7411278723
C               14.9302486576        8.5033655594        5.0775409408
C                7.1244030285        8.6782649942        0.4047062323
C               -0.1009937366       17.1816574020        1.9317190592
C               -3.8524303395       10.3341742857        4.2681321277
C                3.9533964315       10.5090465065        6.6045537677
C               11.1668045742        0.6712657747        2.0163525592
C               15.7889421622        9.3350881925        4.3527602951
C                5.9747722235        9.0060797853        6.6891856383
C                0.1899524402       18.3411691075        2.6564997049
C               -5.0020690735       10.0063693278        4.9929074408
C                4.8121077709        9.6773444199        0.3200743617
C               11.5158605676        0.8368681101        0.6527687319
C               15.4709960975        9.5545615190        2.9891729884
C                5.9436728716        8.6210034048        5.3255979384
C                0.5389949488       18.1755564018        4.0200870116
C               -5.0331812408       10.3914618531        6.3564912681
C                4.4941715189        9.4578734009        1.6836620616
C               11.5755420573        2.0925318287        0.0656391211
C               14.3537179091        8.9784112234        2.4020461837
C                7.0012628848        7.9414709102        4.7384720759
C                0.5986732506       16.9198899598        4.6072138163
C               -3.9755853067       11.0709793987        6.9436208789
C                3.3768841093       10.0340069718        2.2707879241
C               10.6476269289        4.2776551288        3.0902808255
C               12.9253181041        7.0822589954        5.4266963684
C                9.3575574797        7.6524615371        0.7538663557
C               -0.3292428459       14.7347833279        1.5825636316
C               -1.6192554543       11.3599429748        3.9189791745
C                1.9484473528       11.9301132633        6.2553936443
C                4.4486743200       14.4493819909        0.7503780138
C               -3.7607020690       15.6402835585        3.0867883933
C               -0.6876873971        7.9354972873        5.4231882571
C               15.4252339186        4.5632782514        3.9224716067
C               10.2891947131       11.0773559697        6.2588819862
C                7.2161859410        3.3721938879        1.5860717429
C                5.5912144527       14.6685794437        5.5871486392
C               -4.5217940361       16.5200685032        0.9143904585
C               -1.0690899488        6.8365541040        3.2507249640
C               16.5676960141        4.3440457456        6.0948695415
C                9.9077552094       12.1764234758        1.4221113608
C                6.4551745028        2.4924179974        3.7585350360
C                6.6200703978       15.6539042788        6.1676046665
C               -5.8895436141       16.9184877455        1.4946416657
C               -0.7303261327        5.4529230131        3.8312570733
C               17.5966119883        3.3587494862        5.5146183343
C               10.2466435750       13.5601012787        0.8416553335
C                5.0875329206        2.0939805226        3.1780029267
C                5.4583605670       15.4194002142        1.3981975537
C               -5.1055183306       16.0296015946        3.7346751315
C               -0.3525409949        6.5761916890        6.0710249408
C               16.4348013587        3.5932922236        3.2745848685
C               10.6244120132       12.4367790210        5.6110624463
C                5.8714195603        2.9827863870        0.9382350592
C                6.8151453774       15.3919462679        0.6662465002
C               -5.7598752682       17.2182382660        3.0025650397
C               -1.0548468937        5.4150857765        5.3391758572
C               17.7913693808        3.6209208281        4.0066949603
C                9.9222437929       13.5980621612        6.3430134998
C                5.2170252930        1.7940186812        1.6700841428
C                3.0583091875       14.5125488576        1.4084528628
C               -3.1203614727       14.4046385537        3.7449467745
C                0.0622522639        9.1078631142        6.0812777451
C               14.0349636563        4.5000069726        3.2643132255
C               11.0390813907        9.9048478778        5.6008071372
C                7.8565146992        4.6078435991        0.9279822549
N                4.3083405647       14.7774480917        6.3208406337
N               -3.9746852988       15.3546764688        1.6480401177
N               -0.3333747779        7.8929749136        3.9843840994
N               15.2848825382        4.2351597935        5.3612198823
N               10.6434751683       11.1198564230        0.6884193663
N                7.0022041757        3.6577764301        3.0248759006
N                3.0078974414       13.9064318528        2.7831060980
N               -2.5703650140       14.6640754672        5.1195995414
N               -0.4374530641        9.4544168403        0.4466888690
N               13.9846443846        5.1060363344        1.8896604586
N               10.5393745399        9.5581315227        4.2261539020
N                8.4064916938        4.3483629537        6.5625711310
C               10.7019869971       18.5363852210        3.5046300000
O               10.7014107485       18.5366292621        2.3314381411
O               10.7024864672       18.5360081956        4.6778218589
End final coordinates



     Writing all to output data dir ./tmp/c_MOF_CO2_free.save/ :
     XML data file, charge density, pseudopotentials, collected wavefunctions

     init_run     :     73.36s CPU     48.64s WALL (       1 calls)
     electrons    :  18621.09s CPU  11311.76s WALL (      14 calls)
     update_pot   :     91.33s CPU     75.28s WALL (      13 calls)
     forces       :    435.12s CPU    322.62s WALL (      14 calls)

     Called by init_run:
     wfcinit      :     57.49s CPU     33.60s WALL (       1 calls)
     potinit      :     10.40s CPU      9.73s WALL (       1 calls)
     hinit0       :      1.35s CPU      1.09s WALL (       1 calls)

     Called by electrons:
     c_bands      :  15158.16s CPU   8716.38s WALL (     138 calls)
     sum_band     :   2296.05s CPU   1549.20s WALL (     138 calls)
     v_of_rho     :    775.06s CPU    682.01s WALL (     141 calls)
     newd         :    346.59s CPU    365.10s WALL (     141 calls)
     PAW_pot      :    142.95s CPU     86.09s WALL (     154 calls)
     mix_rho      :     22.12s CPU     18.07s WALL (     138 calls)
     vdW_kernel   :      3.86s CPU      3.86s WALL (       1 calls)

     Called by c_bands:
     init_us_2    :    113.07s CPU    112.01s WALL (     608 calls)
     cegterg      :  15051.03s CPU   8610.17s WALL (     276 calls)

     Called by *egterg:
     cdiaghg      :    331.68s CPU    177.81s WALL (    1507 calls)
     h_psi        :   9411.63s CPU   5501.86s WALL (    1557 calls)
     s_psi        :   1084.02s CPU    554.11s WALL (    1557 calls)
     g_psi        :     31.47s CPU     16.35s WALL (    1279 calls)

     Called by h_psi:
     h_psi:calbec :   1399.12s CPU    744.11s WALL (    1557 calls)
     vloc_psi     :   6897.76s CPU   4170.54s WALL (    1557 calls)
                                        0.00s GPU  (    1557 calls)
     add_vuspsi   :   1074.05s CPU    553.60s WALL (    1557 calls)

     General routines
     calbec       :   2037.42s CPU   1081.86s WALL (    1971 calls)
     fft          :    618.33s CPU    483.62s WALL (    9733 calls)
     ffts         :      6.74s CPU      4.92s WALL (     279 calls)
     fftw         :   7148.00s CPU   4426.46s WALL (  558880 calls)
     interpolate  :     12.61s CPU      9.15s WALL (     141 calls)

     Parallel routines

     PWSCF        :      5h22m CPU      3h17m WALL


   This run was terminated on:  16: 0:24  16Sep2026            

=------------------------------------------------------------------------------=
   JOB DONE.
=------------------------------------------------------------------------------=
Note: The following floating-point exceptions are signalling: IEEE_INVALID_FLAG IEEE_UNDERFLOW_FLAG IEEE_DENORMAL
Note: The following floating-point exceptions are signalling: IEEE_INVALID_FLAG IEEE_UNDERFLOW_FLAG IEEE_DENORMAL
Note: The following floating-point exceptions are signalling: IEEE_INVALID_FLAG IEEE_UNDERFLOW_FLAG IEEE_DENORMAL
Note: The following floating-point exceptions are signalling: IEEE_INVALID_FLAG IEEE_UNDERFLOW_FLAG IEEE_DENORMAL
Note: The following floating-point exceptions are signalling: IEEE_INVALID_FLAG IEEE_UNDERFLOW_FLAG IEEE_DENORMAL
Note: The following floating-point exceptions are signalling: IEEE_INVALID_FLAG IEEE_UNDERFLOW_FLAG IEEE_DENORMAL
Note: The following floating-point exceptions are signalling: IEEE_INVALID_FLAG IEEE_UNDERFLOW_FLAG IEEE_DENORMAL
Note: The following floating-point exceptions are signalling: IEEE_INVALID_FLAG IEEE_UNDERFLOW_FLAG IEEE_DENORMAL
Note: The following floating-point exceptions are signalling: IEEE_INVALID_FLAG IEEE_UNDERFLOW_FLAG IEEE_DENORMAL
Note: The following floating-point exceptions are signalling: IEEE_INVALID_FLAG IEEE_UNDERFLOW_FLAG IEEE_DENORMAL
Note: The following floating-point exceptions are signalling: IEEE_INVALID_FLAG IEEE_UNDERFLOW_FLAG IEEE_DENORMAL
Note: The following floating-point exceptions are signalling: IEEE_INVALID_FLAG IEEE_UNDERFLOW_FLAG IEEE_DENORMAL
Note: The following floating-point exceptions are signalling: IEEE_INVALID_FLAG IEEE_UNDERFLOW_FLAG IEEE_DENORMAL
Note: The following floating-point exceptions are signalling: IEEE_INVALID_FLAG IEEE_UNDERFLOW_FLAG IEEE_DENORMAL
Note: The following floating-point exceptions are signalling: IEEE_INVALID_FLAG IEEE_UNDERFLOW_FLAG IEEE_DENORMAL
Note: The following floating-point exceptions are signalling: IEEE_INVALID_FLAG IEEE_UNDERFLOW_FLAG IEEE_DENORMAL
Note: The following floating-point exceptions are signalling: IEEE_INVALID_FLAG IEEE_UNDERFLOW_FLAG IEEE_DENORMAL
Note: The following floating-point exceptions are signalling: IEEE_INVALID_FLAG IEEE_UNDERFLOW_FLAG IEEE_DENORMAL
Note: The following floating-point exceptions are signalling: IEEE_INVALID_FLAG IEEE_UNDERFLOW_FLAG IEEE_DENORMAL
Note: The following floating-point exceptions are signalling: IEEE_INVALID_FLAG IEEE_UNDERFLOW_FLAG IEEE_DENORMAL
Note: The following floating-point exceptions are signalling: IEEE_INVALID_FLAG IEEE_UNDERFLOW_FLAG IEEE_DENORMAL
Note: The following floating-point exceptions are signalling: IEEE_INVALID_FLAG IEEE_UNDERFLOW_FLAG IEEE_DENORMAL
Note: The following floating-point exceptions are signalling: IEEE_INVALID_FLAG IEEE_UNDERFLOW_FLAG IEEE_DENORMAL
Note: The following floating-point exceptions are signalling: IEEE_INVALID_FLAG IEEE_UNDERFLOW_FLAG IEEE_DENORMAL
