
     Program PWSCF v.7.5 starts on 14Sep2026 at 19:45:49 

     This program is part of the open-source Quantum ESPRESSO suite
     for quantum simulation of materials; please cite
         "P. Giannozzi et al., J. Phys.:Condens. Matter 21 395502 (2009);
         "P. Giannozzi et al., J. Phys.:Condens. Matter 29 465901 (2017);
         "P. Giannozzi et al., J. Chem. Phys. 152 154105 (2020);
          URL http://www.quantum-espresso.org", 
     in publications or presentations arising from this work. More details at
     http://www.quantum-espresso.org/quote

     Parallel version (MPI & OpenMP), running on      48 processor cores
     Number of MPI processes:                24
     Threads/MPI process:                     2

     MPI processes distributed on     1 nodes
     30574 MiB available memory on the printing compute node when the environment starts

     Reading input from espresso.pwi
Warning: card &CELL ignored
Warning: card &FCP ignored
Warning: card &RISM ignored

     Current dimensions of program PWSCF are:
     Max number of different atomic species (ntypx) = 10
     Max number of k-points (npk) =  40000
     Max angular momentum in pseudopotentials (lmaxx) =  4
     file Mg.pbe-n-kjpaw_psl.0.3.0.UPF: wavefunction(s)  3S renormalized
     file O.pbe-n-kjpaw_psl.0.1.UPF: wavefunction(s)  2P renormalized
     file C.pbe-n-kjpaw_psl.1.0.0.UPF: wavefunction(s)  2S 2P renormalized

     IMPORTANT: XC functional enforced from input :
     Exchange-correlation= VDW-DF2
                           (   1   4  13   0   2   0   0)
     Any further DFT definition will be discarded
     Please, verify this is what you really want


     R & G space division:  proc/nbgrp/npool/nimage =      24
     Subspace diagonalization in iterative solution of the eigenvalue problem:
     one sub-group per band group will be used
     ELPA distributed-memory algorithm (size of sub-group:  3*  3 procs)


     Parallelization info
     --------------------
     sticks:   dense  smooth     PW     G-vecs:    dense   smooth      PW
     Min        2371    1186    314               146092    51664    7070
     Max        2373    1187    316               146095    51667    7071
     Sum       56923   28471   7567              3506235  1239959  169683

     Using Slab Decomposition



     bravais-lattice index     =            0
     lattice parameter (alat)  =      41.4864  a.u.
     unit-cell volume          =   19743.0237 (a.u.)^3
     number of atoms/cell      =          219
     number of atomic types    =            5
     number of electrons       =       610.00
     number of Kohn-Sham states=          305
     kinetic-energy cutoff     =      60.0000  Ry
     charge density cutoff     =     480.0000  Ry
     scf convergence threshold =      1.0E-07
     mixing beta               =       0.3000
     number of iterations used =            8  plain     mixing
     energy convergence thresh.=      1.0E-04
     force convergence thresh. =      1.0E-03
     Exchange-correlation= VDW-DF2
                           (   1   4  13   0   2   0   0)
     nstep                     =          300


     celldm(1)=  41.486424  celldm(2)=   0.000000  celldm(3)=   0.000000
     celldm(4)=   0.000000  celldm(5)=   0.000000  celldm(6)=   0.000000

     crystal axes: (cart. coord. in units of alat)
               a(1) = (   1.000000   0.000000   0.000000 )  
               a(2) = (  -0.500000   0.866025   0.000000 )  
               a(3) = (   0.000000   0.000000   0.319275 )  

     reciprocal axes: (cart. coord. in units 2 pi/alat)
               b(1) = (  1.000000  0.577350 -0.000000 )  
               b(2) = (  0.000000  1.154701  0.000000 )  
               b(3) = (  0.000000 -0.000000  3.132095 )  


     PseudoPot. # 1 for Mg read from file:
     /home/seyoung/pseudo/Mg.pbe-n-kjpaw_psl.0.3.0.UPF
     MD5 check sum: 24ecedc7f3e3cbe212e682f4413594e4
     Pseudo is Projector augmented-wave + core cor, Zval =  2.0
     Generated using "atomic" code by A. Dal Corso  v.5.0.99 svn rev. 10869
     Shape of augmentation charge: PSQ
     Using radial grid of 1129 points,  4 beta functions with: 
                l(1) =   0
                l(2) =   0
                l(3) =   1
                l(4) =   1
     Q(r) pseudized with 0 coefficients 


     PseudoPot. # 2 for O  read from file:
     /home/seyoung/pseudo/O.pbe-n-kjpaw_psl.0.1.UPF
     MD5 check sum: 0234752ac141de4415c5fc33072bef88
     Pseudo is Projector augmented-wave + core cor, Zval =  6.0
     Generated using "atomic" code by A. Dal Corso  v.5.0.99 svn rev. 10869
     Shape of augmentation charge: BESSEL
     Using radial grid of 1095 points,  4 beta functions with: 
                l(1) =   0
                l(2) =   0
                l(3) =   1
                l(4) =   1
     Q(r) pseudized with 0 coefficients 


     PseudoPot. # 3 for H  read from file:
     /home/seyoung/pseudo/H.pbe-rrkjus_psl.1.0.0.UPF
     MD5 check sum: f52b6d4d1c606e5624b1dc7b2218f220
     Pseudo is Ultrasoft, Zval =  1.0
     Generated using "atomic" code by A. Dal Corso  v.5.1
     Using radial grid of  929 points,  2 beta functions with: 
                l(1) =   0
                l(2) =   0
     Q(r) pseudized with 0 coefficients 


     PseudoPot. # 4 for C  read from file:
     /home/seyoung/pseudo/C.pbe-n-kjpaw_psl.1.0.0.UPF
     MD5 check sum: 5d2aebdfa2cae82b50a7e79e9516da0f
     Pseudo is Projector augmented-wave + core cor, Zval =  4.0
     Generated using "atomic" code by A. Dal Corso  v.5.1
     Shape of augmentation charge: PSQ
     Using radial grid of 1073 points,  4 beta functions with: 
                l(1) =   0
                l(2) =   0
                l(3) =   1
                l(4) =   1
     Q(r) pseudized with 0 coefficients 


     PseudoPot. # 5 for N  read from file:
     /home/seyoung/pseudo/N.pbe-n-radius_5.UPF
     MD5 check sum: 16739722b17309cd8fe442a2ace49922
     Pseudo is Ultrasoft + core correction, Zval =  5.0
     Generated using "atomic" code by A. Dal Corso  v.5.1
     Using radial grid of 1085 points,  4 beta functions with: 
                l(1) =   0
                l(2) =   0
                l(3) =   1
                l(4) =   1
     Q(r) pseudized with 0 coefficients 


     atomic species   valence    mass     pseudopotential
     Mg                2.00    24.30500     Mg( 1.00)
     O                 6.00    15.99900     O ( 1.00)
     H                 1.00     1.00800     H ( 1.00)
     C                 4.00    12.01100     C ( 1.00)
     N                 5.00    14.00700     N ( 1.00)

     No symmetry found



   Cartesian axes

     site n.     atom                  positions (alat units)
         1        Mg     tau(   1) = (   0.4660700   0.2473369   0.2655826  )
         2        Mg     tau(   2) = (   0.5527650   0.2799600   0.0527325  )
         3        Mg     tau(   3) = (   0.4811650   0.3387285   0.1591576  )
         4        Mg     tau(   4) = (  -0.0339300   0.6186885   0.2665426  )
         5        Mg     tau(   5) = (  -0.0188350   0.5272969   0.0536925  )
         6        Mg     tau(   6) = (   0.0527650   0.5860654   0.1601175  )
         7        O      tau(   7) = (   0.5209950   0.2033168   0.0083331  )
         8        O      tau(   8) = (   0.5634250   0.3495365   0.1147581  )
         9        O      tau(   9) = (   0.4155800   0.3131721   0.2211831  )
        10        O      tau(  10) = (   0.0209950   0.6627086   0.2045170  )
        11        O      tau(  11) = (  -0.0844200   0.5528533   0.3109420  )
        12        O      tau(  12) = (   0.0634250   0.5164889   0.0980920  )
        13        O      tau(  13) = (   0.4927850   0.2499090   0.1209638  )
        14        O      tau(  14) = (   0.5371800   0.3018099   0.2273888  )
        15        O      tau(  15) = (   0.4700350   0.3143066   0.0145387  )
        16        O      tau(  16) = (  -0.0072150   0.6161165   0.0918863  )
        17        O      tau(  17) = (  -0.0299650   0.5517188   0.1983113  )
        18        O      tau(  18) = (   0.0371800   0.5642156   0.3047364  )
        19        O      tau(  19) = (   0.4662300   0.1847752   0.1950132  )
        20        O      tau(  20) = (   0.6068650   0.3113794   0.3014383  )
        21        O      tau(  21) = (   0.4269050   0.3698708   0.0885882  )
        22        O      tau(  22) = (  -0.0337700   0.6812502   0.0178368  )
        23        O      tau(  23) = (  -0.0730950   0.4961546   0.1242619  )
        24        O      tau(  24) = (   0.1068650   0.5546460   0.2306869  )
        25        H      tau(  25) = (   0.4813100   0.0801073   0.1720669  )
        26        H      tau(  26) = (   0.6899700   0.3767730   0.2784920  )
        27        H      tau(  27) = (   0.3287200   0.4091450   0.0656419  )
        28        H      tau(  28) = (  -0.0186900   0.7859181   0.0407831  )
        29        H      tau(  29) = (  -0.1712800   0.4568804   0.1472082  )
        30        H      tau(  30) = (   0.1899700   0.4892524   0.2536332  )
        31        H      tau(  31) = (   0.0366950   0.8645099   0.0028128  )
        32        H      tau(  32) = (  -0.2670350   0.4655493   0.1092378  )
        33        H      tau(  33) = (   0.2303400   0.4019917   0.2156629  )
        34        H      tau(  34) = (   0.5366950   0.0015155   0.2100372  )
        35        H      tau(  35) = (   0.7303400   0.4640337   0.3164623  )
        36        H      tau(  36) = (   0.2329650   0.4004761   0.1036122  )
        37        H      tau(  37) = (   0.5413950   0.1004503   0.2749437  )
        38        H      tau(  38) = (   0.6423100   0.4186367   0.0620937  )
        39        H      tau(  39) = (   0.3162950   0.3469384   0.1685187  )
        40        H      tau(  40) = (   0.0413950   0.7655751   0.2571814  )
        41        H      tau(  41) = (  -0.1837050   0.5190870   0.0443313  )
        42        H      tau(  42) = (   0.1423100   0.4473887   0.1507564  )
        43        H      tau(  43) = (   0.1240500   0.7082356   0.0673607  )
        44        H      tau(  44) = (  -0.1753750   0.6193381   0.1737857  )
        45        H      tau(  45) = (   0.0513250   0.4044772   0.2802107  )
        46        H      tau(  46) = (   0.6240500   0.1577898   0.1454894  )
        47        H      tau(  47) = (   0.5513250   0.4615482   0.2519144  )
        48        H      tau(  48) = (   0.1650700   0.6446520   0.2687754  )
        49        H      tau(  49) = (  -0.1408200   0.6866542   0.0559253  )
        50        H      tau(  50) = (  -0.0242500   0.4007446   0.1623503  )
        51        H      tau(  51) = (   0.6650700   0.2213734   0.2633498  )
        52        H      tau(  52) = (   0.4757500   0.4652808   0.0504997  )
        53        H      tau(  53) = (   0.2734200   0.6214425   0.2560810  )
        54        H      tau(  54) = (  -0.1748950   0.7920928   0.0432309  )
        55        H      tau(  55) = (  -0.0985250   0.3185155   0.1496559  )
        56        H      tau(  56) = (   0.7734200   0.2445829   0.2760442  )
        57        H      tau(  57) = (   0.4014750   0.5475099   0.0631941  )
        58        H      tau(  58) = (   0.2461200   0.6787907   0.2059005  )
        59        H      tau(  59) = (  -0.2109100   0.7397762   0.3123255  )
        60        H      tau(  60) = (  -0.0352100   0.3134839   0.0994755  )
        61        H      tau(  61) = (   0.7461200   0.1872347   0.0069496  )
        62        H      tau(  62) = (   0.4647900   0.5525415   0.1133746  )
        63        H      tau(  63) = (   0.2292550   0.7482546   0.0627056  )
        64        H      tau(  64) = (  -0.2626350   0.6904388   0.1691307  )
        65        H      tau(  65) = (   0.0333800   0.2933574   0.2755557  )
        66        H      tau(  66) = (   0.7292550   0.1177708   0.1501444  )
        67        H      tau(  67) = (   0.5333800   0.5726680   0.2565695  )
        68        H      tau(  68) = (   0.2544150   0.6897113   0.1121645  )
        69        H      tau(  69) = (  -0.2245150   0.7414996   0.2185896  )
        70        H      tau(  70) = (  -0.0299000   0.3008399   0.0057395  )
        71        H      tau(  71) = (   0.7544150   0.1763141   0.1006855  )
        72        H      tau(  72) = (   0.4701000   0.5651855   0.2071106  )
        73        H      tau(  73) = (   0.3309200   0.6557891   0.0367901  )
        74        H      tau(  74) = (  -0.2333900   0.8247160   0.1432151  )
        75        H      tau(  75) = (  -0.0975300   0.2515457   0.2496401  )
        76        H      tau(  76) = (   0.8309200   0.2102363   0.1760600  )
        77        H      tau(  77) = (   0.4024700   0.6144797   0.2824850  )
        78        H      tau(  78) = (   0.3414900   0.7342163   0.0501390  )
        79        H      tau(  79) = (  -0.3065950   0.7946563   0.1565640  )
        80        H      tau(  80) = (  -0.0348950   0.2031782   0.2629890  )
        81        H      tau(  81) = (   0.8414900   0.1318091   0.1627111  )
        82        H      tau(  82) = (   0.4651050   0.6628472   0.2691361  )
        83        H      tau(  83) = (   0.2847000   0.7595562   0.2741903  )
        84        H      tau(  84) = (  -0.3001450   0.7328047   0.0613402  )
        85        H      tau(  85) = (   0.0154450   0.2396899   0.1677652  )
        86        H      tau(  86) = (   0.7847000   0.1064692   0.2579349  )
        87        H      tau(  87) = (   0.5154450   0.6263356   0.0450848  )
        88        H      tau(  88) = (   0.3447650   0.7086772   0.2569973  )
        89        H      tau(  89) = (  -0.2861150   0.8102620   0.0441472  )
        90        H      tau(  90) = (  -0.0586500   0.2131115   0.1505723  )
        91        H      tau(  91) = (   0.8447650   0.1573482   0.2751279  )
        92        H      tau(  92) = (   0.4413500   0.6529139   0.0622778  )
        93        H      tau(  93) = (   0.1065750   0.6367105   0.0358578  )
        94        H      tau(  94) = (  -0.1046950   0.6399668   0.1422828  )
        95        H      tau(  95) = (  -0.0018800   0.4553735   0.2487078  )
        96        H      tau(  96) = (   0.6065750   0.2293149   0.1769923  )
        97        H      tau(  97) = (   0.4981200   0.4106519   0.2834173  )
        98        H      tau(  98) = (   0.2202700   0.6109809   0.0396188  )
        99        H      tau(  99) = (  -0.1392600   0.7512944   0.1460439  )
       100        H      tau( 100) = (  -0.0810100   0.3697755   0.2524689  )
       101        H      tau( 101) = (   0.7202700   0.2550445   0.1732312  )
       102        H      tau( 102) = (   0.4189900   0.4962499   0.2796562  )
       103        H      tau( 103) = (   0.1684200   0.5991683   0.1300631  )
       104        H      tau( 104) = (  -0.1031050   0.7122972   0.2364881  )
       105        H      tau( 105) = (  -0.0653150   0.4205852   0.0236381  )
       106        H      tau( 106) = (   0.6684200   0.2668571   0.0827870  )
       107        H      tau( 107) = (   0.4346850   0.4454402   0.1892120  )
       108        H      tau( 108) = (   0.1498150   0.6652374   0.1584690  )
       109        H      tau( 109) = (  -0.1510200   0.6631503   0.2648940  )
       110        H      tau( 110) = (   0.0012050   0.4036631   0.0520440  )
       111        H      tau( 111) = (   0.6498150   0.2007880   0.0543811  )
       112        H      tau( 112) = (   0.5012050   0.4623623   0.1608061  )
       113        C      tau( 113) = (   0.5154550   0.1492075   0.0364069  )
       114        C      tau( 114) = (   0.6130550   0.3717934   0.1428320  )
       115        C      tau( 115) = (   0.3714900   0.3450245   0.2492570  )
       116        C      tau( 116) = (   0.0154550   0.7168179   0.1764431  )
       117        C      tau( 117) = (  -0.1285100   0.5210009   0.2828682  )
       118        C      tau( 118) = (   0.1130550   0.4942320   0.0700181  )
       119        C      tau( 119) = (   0.4988700   0.1423573   0.0995053  )
       120        C      tau( 120) = (   0.6272800   0.3608555   0.2059303  )
       121        C      tau( 121) = (   0.3738500   0.3628127   0.3123553  )
       122        C      tau( 122) = (  -0.0011300   0.7236681   0.1133448  )
       123        C      tau( 123) = (  -0.1261500   0.5032127   0.2197698  )
       124        C      tau( 124) = (   0.1272800   0.5051699   0.0069198  )
       125        C      tau( 125) = (   0.4950750   0.0833723   0.1247855  )
       126        C      tau( 126) = (   0.6802600   0.3870614   0.2312105  )
       127        C      tau( 127) = (   0.3246650   0.3955917   0.0183604  )
       128        C      tau( 128) = (  -0.0049250   0.7826531   0.0880646  )
       129        C      tau( 129) = (  -0.1753350   0.4704337   0.1944896  )
       130        C      tau( 130) = (   0.1802600   0.4789640   0.3009146  )
       131        C      tau( 131) = (   0.5085500   0.0305880   0.0917980  )
       132        C      tau( 132) = (   0.7192350   0.4251232   0.1982230  )
       133        C      tau( 133) = (   0.2722150   0.4103142   0.3046480  )
       134        C      tau( 134) = (   0.0085500   0.8354374   0.1210521  )
       135        C      tau( 135) = (  -0.2277850   0.4557112   0.2274771  )
       136        C      tau( 136) = (   0.2192350   0.4409022   0.0146271  )
       137        C      tau( 137) = (   0.5246250   0.0381138   0.0297341  )
       138        C      tau( 138) = (   0.7046800   0.4352817   0.1361591  )
       139        C      tau( 139) = (   0.2706950   0.3926299   0.2425842  )
       140        C      tau( 140) = (   0.0246250   0.8279116   0.1831160  )
       141        C      tau( 141) = (  -0.2293050   0.4733955   0.2895410  )
       142        C      tau( 142) = (   0.2046800   0.4307437   0.0766909  )
       143        C      tau( 143) = (   0.5275250   0.0952541   0.0028639  )
       144        C      tau( 144) = (   0.6537450   0.4092230   0.1092889  )
       145        C      tau( 145) = (   0.3187300   0.3615483   0.2157140  )
       146        C      tau( 146) = (   0.0275250   0.7707713   0.2099862  )
       147        C      tau( 147) = (  -0.1812700   0.5044771   0.3164112  )
       148        C      tau( 148) = (   0.1537450   0.4568024   0.1035611  )
       149        C      tau( 149) = (   0.4852500   0.1948730   0.1407428  )
       150        C      tau( 150) = (   0.5886100   0.3228023   0.2471679  )
       151        C      tau( 151) = (   0.4261400   0.3483501   0.0343178  )
       152        C      tau( 152) = (  -0.0147500   0.6711524   0.0721072  )
       153        C      tau( 153) = (  -0.0738600   0.5176753   0.1785322  )
       154        C      tau( 154) = (   0.0886100   0.5432231   0.2849573  )
       155        C      tau( 155) = (   0.2027400   0.6581793   0.0342039  )
       156        C      tau( 156) = (  -0.1713700   0.7125137   0.1406290  )
       157        C      tau( 157) = (  -0.0313700   0.3613578   0.2470540  )
       158        C      tau( 158) = (   0.7027400   0.2078461   0.1786461  )
       159        C      tau( 159) = (   0.4686300   0.5046676   0.2850712  )
       160        C      tau( 160) = (   0.2546500   0.6682945   0.2540344  )
       161        C      tau( 161) = (  -0.2060850   0.7524115   0.0411844  )
       162        C      tau( 162) = (  -0.0485650   0.3113448   0.1476094  )
       163        C      tau( 163) = (   0.7546500   0.1977309   0.2780907  )
       164        C      tau( 164) = (   0.4514350   0.5546806   0.0652407  )
       165        C      tau( 165) = (   0.3012250   0.7129381   0.2809078  )
       166        C      tau( 166) = (  -0.2680350   0.7704249   0.0680577  )
       167        C      tau( 167) = (  -0.0331900   0.2486879   0.1744828  )
       168        C      tau( 168) = (   0.8012250   0.1530873   0.2512173  )
       169        C      tau( 169) = (   0.4668100   0.6173375   0.0383673  )
       170        C      tau( 170) = (   0.2484250   0.7020781   0.0640466  )
       171        C      tau( 171) = (  -0.2322300   0.7301287   0.1704716  )
       172        C      tau( 172) = (  -0.0161950   0.2998440   0.2768966  )
       173        C      tau( 173) = (   0.7484250   0.1639473   0.1488035  )
       174        C      tau( 174) = (   0.4838050   0.5661814   0.2552285  )
       175        C      tau( 175) = (   0.3100350   0.7007791   0.0306281  )
       176        C      tau( 176) = (  -0.2619100   0.7841340   0.1370531  )
       177        C      tau( 177) = (  -0.0481250   0.2471377   0.2434781  )
       178        C      tau( 178) = (   0.8100350   0.1652463   0.1822220  )
       179        C      tau( 179) = (   0.4518750   0.6188877   0.2886470  )
       180        C      tau( 180) = (   0.1393950   0.6609766   0.0641264  )
       181        C      tau( 181) = (  -0.1421200   0.6562567   0.1705514  )
       182        C      tau( 182) = (   0.0027250   0.4148175   0.2769765  )
       183        C      tau( 183) = (   0.6393950   0.2050488   0.1487237  )
       184        C      tau( 184) = (   0.5027250   0.4512079   0.2551487  )
       185        N      tau( 185) = (   0.1963650   0.6733954   0.2875423  )
       186        N      tau( 186) = (  -0.1813600   0.6993848   0.0746923  )
       187        N      tau( 187) = (  -0.0150050   0.3592706   0.1811173  )
       188        N      tau( 188) = (   0.6963650   0.1926300   0.2445828  )
       189        N      tau( 189) = (   0.4849950   0.5067548   0.0317328  )
       190        N      tau( 190) = (   0.1370900   0.6335842   0.1268959  )
       191        N      tau( 191) = (  -0.1172450   0.6679567   0.2333209  )
       192        N      tau( 192) = (  -0.0198450   0.4305099   0.0204709  )
       193        N      tau( 193) = (   0.6370900   0.2324412   0.0859542  )
       194        N      tau( 194) = (   0.4801550   0.4355155   0.1923792  )
       195        O      tau( 195) = (   0.3749500   0.2208884   0.3052408  )
       196        O      tau( 196) = (   0.2824150   0.2355849   0.2582531  )
       197        H      tau( 197) = (   0.2946000   0.2647440   0.1378992  )
       198        H      tau( 198) = (   0.3118900   0.1843768   0.2129033  )
       199        H      tau( 199) = (   0.3795900   0.1659305   0.1827956  )
       200        H      tau( 200) = (   0.3542900   0.0605352   0.1680196  )
       201        H      tau( 201) = (   0.3482350   0.0843422   0.2458557  )
       202        H      tau( 202) = (   0.2457900   0.2608988   0.0394986  )
       203        H      tau( 203) = (   0.2190550   0.1574348   0.0728852  )
       204        H      tau( 204) = (   0.2141350   0.1791200   0.1511076  )
       205        H      tau( 205) = (   0.1816100   0.0698016   0.1379151  )
       206        H      tau( 206) = (   0.2516650   0.0527150   0.1016614  )
       207        H      tau( 207) = (   0.2352550   0.0933835   0.2362487  )
       208        H      tau( 208) = (   0.2571300   0.0196934   0.2111313  )
       209        H      tau( 209) = (   0.3655050   0.2472243   0.1025075  )
       210        H      tau( 210) = (   0.3319200   0.1401229   0.0842418  )
       211        C      tau( 211) = (   0.3064950   0.1680003   0.1175901  )
       212        C      tau( 212) = (   0.3273700   0.0879535   0.2003079  )
       213        C      tau( 213) = (   0.2599350   0.0684766   0.2000014  )
       214        C      tau( 214) = (   0.2384900   0.1494587   0.1185032  )
       215        C      tau( 215) = (   0.2302250   0.0817441   0.1368966  )
       216        C      tau( 216) = (   0.3167000   0.2366847   0.1024117  )
       217        C      tau( 217) = (   0.3178550   0.2356022   0.3054515  )
       218        N      tau( 218) = (   0.3333700   0.1541525   0.1807682  )
       219        N      tau( 219) = (   0.2911500   0.2522386   0.0421486  )

     number of k points=     2
                       cart. coord. in units 2pi/alat
        k(    1) = (   0.0000000   0.0000000   0.0000000), wk =   1.0000000
        k(    2) = (   0.0000000   0.0000000  -1.5660476), wk =   1.0000000

     Dense  grid:  3506235 G-vectors     FFT dimensions: ( 300, 300,  96)

     Smooth grid:  1239959 G-vectors     FFT dimensions: ( 216, 216,  72)

     Estimated max dynamical RAM per process >       1.06 GB

     Estimated total dynamical RAM >      25.37 GB

     Check: negative core charge=   -0.000001

     Initial potential from superposition of free atoms

     starting charge     609.9901, renormalised to     610.0000

     negative rho (up, down):  7.286E-06 0.000E+00


     %%%%%%%%%%%%%%%%%%%%%%%%%%%%%%%%%%%%%%%%%%%%%%%%%%%%%%%%%%%%%%%%%%%%%%%%
     %                                                                      %
     % You are using vdW-DF, which was implemented by the Thonhauser group. %
     % Please cite the following two papers that made this development      %
     % possible and the two reviews that describe the various versions:     %
     %                                                                      %
     %   T. Thonhauser et al., PRL 115, 136402 (2015).                      %
     %   T. Thonhauser et al., PRB 76, 125112 (2007).                       %
     %   K. Berland et al., Rep. Prog. Phys. 78, 066501 (2015).             %
     %   D.C. Langreth et al., J. Phys.: Condens. Matter 21, 084203 (2009). %
     %                                                                      %
     % If you are calculating stress with vdW-DF, please also cite:         %
     %                                                                      %
     %   R. Sabatini et al., J. Phys.: Condens. Matter 24, 424209 (2012).   %
     %                                                                      %
     %%%%%%%%%%%%%%%%%%%%%%%%%%%%%%%%%%%%%%%%%%%%%%%%%%%%%%%%%%%%%%%%%%%%%%%%

     %%%%%%%%%%%%%%%%%%%%%%%%%%%%%%%%%%%%%%%%%%%%%%%%%%%%%%%%%%%%%%%%%%%%%%%%
     %                                                                      %
     %  vdW-DF NEWS:                                                        %
     %                                                                      %
     %  * vdW-DF3 is now available. DOI: 10.1021/acs.jctc.0c00471           %
     %    use with input_dft = 'vdW-DF3-opt1' or 'vdW-DF3-opt2'             %
     %                                                                      %
     %  * Unscreened and range-separated hybrid vdW-DF-cx functionals       %
     %    DOI: 10.1063/1.4986522 and 10.1088/1361-648X/ac2ad2               %
     %    use with input_dft = 'vdW-DF-cx0'    and 'vdW-DF-ahcx'            %
     %  * Unscreened and range-separated hybrid vdW-DF2-b86r functionals    %
     %    DOI: 10.1063/1.4986522 and DOI: 10.1103/PhysRevX.12.041003        %
     %    use with input_dft = 'vdW-DF2-br0' and 'vdW-DF2-ahbr'             %
     %                                                                      %
     %%%%%%%%%%%%%%%%%%%%%%%%%%%%%%%%%%%%%%%%%%%%%%%%%%%%%%%%%%%%%%%%%%%%%%%%


     Starting wfcs are  570 randomized atomic wfcs
     Checking if some PAW data can be deallocated... 

     total cpu time spent up to now is       52.9 secs

     per-process dynamical memory:   318.5 Mb

     Self-consistent Calculation

     iteration #  1     ecut=    60.00 Ry     beta= 0.30
     Davidson diagonalization with overlap
     ethr =  1.00E-02,  avg # of iterations =  2.0

     negative rho (up, down):  1.763E-05 0.000E+00

     total cpu time spent up to now is      129.4 secs

     total energy              =   -2937.51427871 Ry
     estimated scf accuracy    <      28.32207932 Ry

     iteration #  2     ecut=    60.00 Ry     beta= 0.30
     Davidson diagonalization with overlap
     ethr =  4.64E-03,  avg # of iterations =  2.0

     negative rho (up, down):  4.439E-05 0.000E+00

     total cpu time spent up to now is      196.0 secs

     total energy              =   -2937.06825894 Ry
     estimated scf accuracy    <       6.11016556 Ry

     iteration #  3     ecut=    60.00 Ry     beta= 0.30
     Davidson diagonalization with overlap
     ethr =  1.00E-03,  avg # of iterations =  4.0

     negative rho (up, down):  6.805E-05 0.000E+00

     total cpu time spent up to now is      276.1 secs

     total energy              =   -2938.05276916 Ry
     estimated scf accuracy    <       1.11732948 Ry

     iteration #  4     ecut=    60.00 Ry     beta= 0.30
     Davidson diagonalization with overlap
     ethr =  1.83E-04,  avg # of iterations =  2.5

     negative rho (up, down):  1.190E-04 0.000E+00

     total cpu time spent up to now is      339.4 secs

     total energy              =   -2938.04899892 Ry
     estimated scf accuracy    <       0.27225877 Ry

     iteration #  5     ecut=    60.00 Ry     beta= 0.30
     Davidson diagonalization with overlap
     ethr =  4.46E-05,  avg # of iterations =  4.0

     negative rho (up, down):  1.225E-04 0.000E+00

     total cpu time spent up to now is      428.4 secs

     total energy              =   -2938.07243932 Ry
     estimated scf accuracy    <       0.06105477 Ry

     iteration #  6     ecut=    60.00 Ry     beta= 0.30
     Davidson diagonalization with overlap
     ethr =  1.00E-05,  avg # of iterations =  5.0

     negative rho (up, down):  1.295E-04 0.000E+00

     total cpu time spent up to now is      513.5 secs

     total energy              =   -2938.08761271 Ry
     estimated scf accuracy    <       0.01352291 Ry

     iteration #  7     ecut=    60.00 Ry     beta= 0.30
     Davidson diagonalization with overlap
     ethr =  2.22E-06,  avg # of iterations =  6.0

     negative rho (up, down):  1.339E-04 0.000E+00

     total cpu time spent up to now is      598.1 secs

     total energy              =   -2938.09107850 Ry
     estimated scf accuracy    <       0.00186155 Ry

     iteration #  8     ecut=    60.00 Ry     beta= 0.30
     Davidson diagonalization with overlap
     ethr =  3.05E-07,  avg # of iterations =  5.0

     negative rho (up, down):  1.349E-04 0.000E+00

     total cpu time spent up to now is      682.4 secs

     total energy              =   -2938.09140186 Ry
     estimated scf accuracy    <       0.00056160 Ry

     iteration #  9     ecut=    60.00 Ry     beta= 0.30
     Davidson diagonalization with overlap
     ethr =  9.21E-08,  avg # of iterations =  5.0

     negative rho (up, down):  1.357E-04 0.000E+00

     total cpu time spent up to now is      771.1 secs

     total energy              =   -2938.09148095 Ry
     estimated scf accuracy    <       0.00004758 Ry

     iteration # 10     ecut=    60.00 Ry     beta= 0.30
     Davidson diagonalization with overlap
     ethr =  7.80E-09,  avg # of iterations =  7.0

     negative rho (up, down):  1.362E-04 0.000E+00

     total cpu time spent up to now is      878.3 secs

     total energy              =   -2938.09150295 Ry
     estimated scf accuracy    <       0.00001849 Ry

     iteration # 11     ecut=    60.00 Ry     beta= 0.30
     Davidson diagonalization with overlap
     ethr =  3.03E-09,  avg # of iterations =  5.0

     negative rho (up, down):  1.366E-04 0.000E+00

     total cpu time spent up to now is      963.6 secs

     total energy              =   -2938.09150816 Ry
     estimated scf accuracy    <       0.00000494 Ry

     iteration # 12     ecut=    60.00 Ry     beta= 0.30
     Davidson diagonalization with overlap
     ethr =  8.10E-10,  avg # of iterations =  3.5

     negative rho (up, down):  1.368E-04 0.000E+00

     total cpu time spent up to now is     1028.7 secs

     total energy              =   -2938.09150781 Ry
     estimated scf accuracy    <       0.00000176 Ry

     iteration # 13     ecut=    60.00 Ry     beta= 0.30
     Davidson diagonalization with overlap
     ethr =  2.88E-10,  avg # of iterations =  7.0

     negative rho (up, down):  1.371E-04 0.000E+00

     total cpu time spent up to now is     1130.2 secs

     total energy              =   -2938.09150846 Ry
     estimated scf accuracy    <       0.00000136 Ry

     iteration # 14     ecut=    60.00 Ry     beta= 0.30
     Davidson diagonalization with overlap
     ethr =  2.22E-10,  avg # of iterations =  5.5

     negative rho (up, down):  1.375E-04 0.000E+00

     total cpu time spent up to now is     1210.7 secs

     End of self-consistent calculation

          k = 0.0000 0.0000 0.0000 (154911 PWs)   bands (ev):

   -22.3549 -22.3226 -22.1944 -22.1437 -22.1304 -21.8999 -21.4246 -20.4072
   -20.3767 -20.3443 -20.2966 -20.2808 -20.2289 -20.0422 -19.9796 -19.9308
   -19.8936 -19.8285 -19.8100 -19.5849 -18.9857 -18.7761 -18.6029 -18.6013
   -18.5691 -18.4712 -18.1893 -18.0259 -18.0240 -17.9936 -17.9655 -17.8907
   -17.0557 -16.9891 -16.7797 -16.3998 -16.3378 -16.1028 -16.0841 -15.5310
   -15.4194 -15.3233 -15.2613 -15.2570 -15.1817 -14.9078 -14.7106 -14.7014
   -14.6628 -14.6020 -14.5901 -14.5255 -14.4684 -14.4008 -14.3482 -14.2302
   -14.1829 -14.1706 -13.9274 -13.2739 -13.0298 -12.9505 -12.8201 -12.7371
   -12.6479 -12.6337 -12.6083 -12.5201 -12.4689 -11.8032 -11.6070 -11.6010
   -11.5563 -11.5361 -11.5268 -11.5180 -11.4599 -11.3541 -11.1994 -11.1312
   -10.9164 -10.8712 -10.8570 -10.6881 -10.6783 -10.6597 -10.6359 -10.5801
   -10.5549 -10.3905 -10.2967 -10.2237 -10.0213  -9.8752  -9.6908  -9.6652
    -9.6221  -9.6186  -9.6019  -9.5276  -9.4602  -9.4141  -9.3167  -9.2611
    -8.8562  -8.8081  -8.7294  -8.6443  -8.6322  -8.6002  -8.5386  -8.5074
    -8.4951  -8.4671  -8.4052  -8.3462  -8.2899  -8.2847  -8.2678  -8.2221
    -8.1656  -7.9707  -7.9152  -7.7440  -7.7171  -7.6818  -7.6291  -7.6001
    -7.5601  -7.4851  -7.4534  -7.4261  -7.3700  -7.3499  -7.3259  -7.3113
    -7.2888  -7.2545  -7.2122  -7.1985  -7.1734  -7.1634  -7.1445  -7.1354
    -7.1196  -7.0741  -7.0412  -6.9936  -6.9505  -6.9450  -6.9242  -6.8714
    -6.8485  -6.8274  -6.7770  -6.7632  -6.6833  -6.6536  -6.6195  -6.6128
    -6.5511  -6.5418  -6.4958  -6.4736  -6.4440  -6.4330  -6.4077  -6.3770
    -6.3347  -6.3260  -6.3135  -6.2842  -6.2563  -6.1792  -6.1327  -6.1245
    -6.1076  -6.0826  -6.0367  -6.0320  -6.0260  -5.9941  -5.9534  -5.9406
    -5.9254  -5.8738  -5.8541  -5.8214  -5.7842  -5.7178  -5.6237  -5.6010
    -5.5938  -5.5595  -5.5360  -5.5119  -5.4790  -5.4508  -5.4329  -5.3898
    -5.3593  -5.3302  -5.2995  -5.2798  -5.2380  -5.2285  -5.2134  -5.1848
    -5.1553  -5.1429  -5.1081  -5.0459  -4.9940  -4.9919  -4.9434  -4.9125
    -4.8889  -4.8618  -4.7540  -4.7134  -4.6704  -4.6600  -4.5689  -4.5483
    -4.4446  -4.4175  -4.3839  -4.3649  -4.3262  -4.3082  -4.2822  -4.2662
    -4.2273  -4.2225  -4.1875  -4.1605  -4.1265  -4.1094  -4.0898  -4.0751
    -4.0454  -4.0094  -3.9802  -3.9376  -3.9169  -3.8827  -3.8555  -3.8061
    -3.7757  -3.7435  -3.7123  -3.6719  -3.6528  -3.5899  -3.5452  -3.4873
    -3.3714  -3.3420  -3.3211  -3.2412  -3.1537  -3.0670  -3.0425  -2.9970
    -2.9498  -2.9073  -2.8121  -2.7567  -2.6970  -2.6127  -2.5813  -2.5308
    -2.4516  -2.3980  -2.3736  -2.3408  -2.3218  -2.2435  -2.1826  -2.1656
    -2.1343  -2.1069  -2.0900  -2.0502  -1.9861  -1.9015  -1.8431  -1.8314
    -1.7907  -1.7276  -1.6784  -1.5209  -1.5112  -1.4532  -1.4457  -1.3144
    -1.2812  -1.2609  -1.2411  -1.2224  -1.1925  -1.1316  -0.6173  -0.5503
    -0.3121

          k = 0.0000 0.0000-1.5660 (154844 PWs)   bands (ev):

   -22.3440 -22.2850 -22.2336 -22.1467 -22.1206 -21.8998 -21.4093 -20.4401
   -20.3977 -20.3823 -20.3099 -20.2943 -20.2664 -20.0606 -19.9597 -19.9128
   -19.8750 -19.8076 -19.7933 -19.5639 -18.9799 -18.7389 -18.5651 -18.5635
   -18.5312 -18.4336 -18.2398 -18.0771 -18.0753 -18.0449 -17.9418 -17.9268
   -17.0423 -16.9759 -16.7668 -16.4002 -16.3399 -16.1061 -16.0918 -15.5276
   -15.4172 -15.3187 -15.2568 -15.2524 -15.1773 -14.9070 -14.7068 -14.6985
   -14.6592 -14.5894 -14.5827 -14.5257 -14.5115 -14.4477 -14.3505 -14.2256
   -14.2134 -14.1637 -13.9228 -13.3554 -13.0217 -12.9613 -12.8245 -12.7438
   -12.6541 -12.6402 -12.6161 -12.5256 -12.4205 -11.7238 -11.6139 -11.5466
   -11.5234 -11.4663 -11.4592 -11.4551 -11.3841 -11.3574 -11.1493 -11.0751
   -10.9040 -10.8559 -10.7934 -10.7171 -10.6919 -10.6671 -10.6120 -10.5893
   -10.5427 -10.3654 -10.2903 -10.2265 -10.0334  -9.8844  -9.6832  -9.6748
    -9.6320  -9.6254  -9.6123  -9.5592  -9.5377  -9.5312  -9.3468  -9.1765
    -9.0728  -8.8747  -8.7274  -8.7142  -8.7085  -8.6732  -8.6138  -8.5753
    -8.4097  -8.3046  -8.2578  -8.2537  -8.1673  -8.1062  -8.0453  -8.0252
    -7.9323  -7.9113  -7.8662  -7.8151  -7.7926  -7.7493  -7.6583  -7.6279
    -7.5685  -7.4907  -7.4528  -7.4181  -7.3984  -7.3662  -7.3421  -7.3279
    -7.3015  -7.2659  -7.2609  -7.2254  -7.1992  -7.1832  -7.1574  -7.1146
    -7.1058  -7.0915  -7.0646  -7.0048  -6.9693  -6.9393  -6.8553  -6.8395
    -6.8229  -6.7729  -6.7142  -6.6822  -6.6649  -6.6182  -6.5916  -6.5568
    -6.5435  -6.5303  -6.5170  -6.4759  -6.4432  -6.4165  -6.4076  -6.3928
    -6.3655  -6.3501  -6.3337  -6.3105  -6.2757  -6.2678  -6.2556  -6.2440
    -6.2305  -6.2090  -6.1651  -6.1532  -6.1327  -6.1209  -6.1070  -6.0846
    -6.0770  -6.0433  -6.0348  -5.9959  -5.9554  -5.9391  -5.8725  -5.8332
    -5.7783  -5.7046  -5.5795  -5.5718  -5.5374  -5.4940  -5.4433  -5.4258
    -5.3998  -5.3682  -5.3392  -5.3140  -5.2621  -5.2301  -5.2115  -5.1907
    -5.1516  -5.1474  -5.1433  -5.0243  -4.9824  -4.9766  -4.9503  -4.8842
    -4.7487  -4.7195  -4.6826  -4.6638  -4.6047  -4.5782  -4.5583  -4.4920
    -4.4192  -4.4096  -4.3679  -4.3552  -4.3330  -4.3056  -4.2774  -4.2655
    -4.2170  -4.2032  -4.1177  -4.1083  -4.1009  -4.0859  -4.0668  -4.0349
    -4.0246  -3.9951  -3.9297  -3.8686  -3.8545  -3.8028  -3.7601  -3.7518
    -3.6043  -3.5960  -3.5606  -3.5300  -3.4117  -3.3740  -3.3530  -3.3320
    -3.3156  -3.3015  -3.2575  -3.2294  -3.1408  -2.9567  -2.9020  -2.8715
    -2.8638  -2.8360  -2.7987  -2.7591  -2.7233  -2.6904  -2.6624  -2.5692
    -2.4403  -2.4285  -2.3760  -2.3277  -2.3108  -2.2389  -2.2147  -2.1827
    -2.1388  -2.1161  -2.0353  -2.0279  -1.9776  -1.9266  -1.8976  -1.8670
    -1.8386  -1.8001  -1.7595  -1.5645  -1.4916  -1.4526  -1.4343  -1.3243
    -1.2736  -1.2670  -1.2406  -1.2173  -1.1697  -1.1294  -0.5948  -0.5480
    -0.3091

     highest occupied level (ev):    -0.3091

!    total energy              =   -2938.09150883 Ry
     estimated scf accuracy    <       0.00000007 Ry

     The total energy is the sum of the following terms:
     one-electron contribution =   -6695.22818375 Ry
     hartree contribution      =    3544.81898379 Ry
     xc contribution           =    -693.75084429 Ry
     ewald contribution        =    1825.91268114 Ry
     one-center paw contrib.   =    -919.84414571 Ry

     convergence has been achieved in  14 iterations

     negative rho (up, down):  1.375E-04 0.000E+00

     Forces acting on atoms (cartesian axes, Ry/au):

     atom    1 type  1   force =    -0.02729739    0.00101687    0.01487549
     atom    2 type  1   force =    -0.00301567    0.00251258   -0.00316033
     atom    3 type  1   force =    -0.00493512    0.00465111   -0.00012458
     atom    4 type  1   force =     0.00106495   -0.00117655    0.00141830
     atom    5 type  1   force =     0.00168864   -0.00224005    0.00070428
     atom    6 type  1   force =     0.00318028   -0.00166822    0.00068061
     atom    7 type  2   force =    -0.00038627   -0.01137747   -0.00007821
     atom    8 type  2   force =     0.00657360    0.00458831    0.00142249
     atom    9 type  2   force =    -0.00215673    0.00460156   -0.00603555
     atom   10 type  2   force =     0.00115301    0.00735774   -0.00089803
     atom   11 type  2   force =    -0.00605187   -0.00012649   -0.00030434
     atom   12 type  2   force =     0.00057326   -0.00284752    0.00102852
     atom   13 type  2   force =    -0.00286461   -0.01753736    0.00725705
     atom   14 type  2   force =     0.00887352    0.00114875    0.00064070
     atom   15 type  2   force =     0.00133087    0.00923161    0.00346137
     atom   16 type  2   force =    -0.00238621    0.00903590   -0.00152661
     atom   17 type  2   force =    -0.00601043   -0.00404052   -0.00128965
     atom   18 type  2   force =     0.00424288   -0.00080816   -0.00108827
     atom   19 type  2   force =    -0.01113515   -0.00359093    0.01231933
     atom   20 type  2   force =     0.00012532   -0.00024730   -0.00266899
     atom   21 type  2   force =     0.00177676   -0.00025220    0.00261524
     atom   22 type  2   force =    -0.00055130    0.00000945    0.00189302
     atom   23 type  2   force =     0.00000539    0.00118648    0.00279382
     atom   24 type  2   force =    -0.00192776    0.00077553    0.00212923
     atom   25 type  3   force =     0.00210279   -0.00068265   -0.00018141
     atom   26 type  3   force =    -0.00043903    0.00051882   -0.00116113
     atom   27 type  3   force =    -0.00046682   -0.00098360   -0.00059485
     atom   28 type  3   force =     0.00086796   -0.00006778    0.00111357
     atom   29 type  3   force =    -0.00028704    0.00054695    0.00125223
     atom   30 type  3   force =    -0.00011738   -0.00083485    0.00137317
     atom   31 type  3   force =     0.00014021    0.00028346    0.00061738
     atom   32 type  3   force =    -0.00029356   -0.00018041    0.00042162
     atom   33 type  3   force =    -0.00023179   -0.00053730    0.00026145
     atom   34 type  3   force =     0.00021355   -0.00037167   -0.00049155
     atom   35 type  3   force =     0.00037595    0.00013770   -0.00054734
     atom   36 type  3   force =     0.00038518    0.00039216   -0.00015398
     atom   37 type  3   force =    -0.00171792    0.00020740    0.00172169
     atom   38 type  3   force =     0.00045257   -0.00135628    0.00161018
     atom   39 type  3   force =     0.00136415    0.00613281    0.00524708
     atom   40 type  3   force =    -0.00131375   -0.00022915   -0.00163413
     atom   41 type  3   force =     0.00092717   -0.00128816   -0.00148061
     atom   42 type  3   force =     0.00067479    0.00139816   -0.00137954
     atom   43 type  3   force =     0.00014828   -0.00037240   -0.00013226
     atom   44 type  3   force =     0.00054999    0.00039043   -0.00019081
     atom   45 type  3   force =    -0.00052686    0.00034949   -0.00019353
     atom   46 type  3   force =     0.00018144    0.00043927    0.00011853
     atom   47 type  3   force =    -0.00027119    0.00003960    0.00010067
     atom   48 type  3   force =    -0.00035208   -0.00089331   -0.00111808
     atom   49 type  3   force =     0.00086827   -0.00062199   -0.00131104
     atom   50 type  3   force =    -0.00007881    0.00076305   -0.00120565
     atom   51 type  3   force =    -0.00055507    0.00075249    0.00118938
     atom   52 type  3   force =    -0.00069396   -0.00099149    0.00113142
     atom   53 type  3   force =    -0.00052308    0.00103557   -0.00001923
     atom   54 type  3   force =     0.00002775   -0.00000416    0.00005836
     atom   55 type  3   force =     0.00082722   -0.00019348   -0.00001228
     atom   56 type  3   force =    -0.00037918   -0.00075794   -0.00000203
     atom   57 type  3   force =     0.00100186    0.00007486    0.00001210
     atom   58 type  3   force =     0.00072975   -0.00099616    0.00639237
     atom   59 type  3   force =     0.00053214    0.00113717    0.00640860
     atom   60 type  3   force =    -0.00127195   -0.00011086    0.00638380
     atom   61 type  3   force =     0.00073757    0.00102259   -0.00641692
     atom   62 type  3   force =    -0.00131825    0.00012261   -0.00639352
     atom   63 type  3   force =     0.00026069   -0.00048434   -0.00021898
     atom   64 type  3   force =     0.00045659    0.00101434    0.00004952
     atom   65 type  3   force =    -0.00054612    0.00011065   -0.00026834
     atom   66 type  3   force =     0.00032244    0.00058411    0.00020634
     atom   67 type  3   force =    -0.00044454    0.00005207    0.00021913
     atom   68 type  3   force =     0.00122256    0.00157644   -0.00548670
     atom   69 type  3   force =    -0.00189551    0.00013693   -0.00496446
     atom   70 type  3   force =     0.00070890   -0.00182890   -0.00545439
     atom   71 type  3   force =     0.00120396   -0.00160161    0.00546750
     atom   72 type  3   force =     0.00077008    0.00182022    0.00548926
     atom   73 type  3   force =     0.00002814    0.00029939    0.00003411
     atom   74 type  3   force =    -0.00105450   -0.00616238   -0.00346208
     atom   75 type  3   force =     0.00016990   -0.00023619   -0.00001870
     atom   76 type  3   force =     0.00006623   -0.00015991   -0.00005393
     atom   77 type  3   force =     0.00020524    0.00012430   -0.00002499
     atom   78 type  3   force =    -0.00064915   -0.00037245    0.00067313
     atom   79 type  3   force =     0.00038785    0.00022887    0.00077628
     atom   80 type  3   force =    -0.00005640    0.00065478    0.00068324
     atom   81 type  3   force =    -0.00065435    0.00036269   -0.00066075
     atom   82 type  3   force =    -0.00003557   -0.00050625   -0.00074632
     atom   83 type  3   force =     0.00011621   -0.00000288   -0.00011365
     atom   84 type  3   force =     0.00005684    0.00074210   -0.00017441
     atom   85 type  3   force =     0.00009184    0.00001091   -0.00007422
     atom   86 type  3   force =     0.00016561    0.00011963    0.00010300
     atom   87 type  3   force =     0.00006423    0.00008437    0.00009337
     atom   88 type  3   force =    -0.00060852   -0.00012937   -0.00074133
     atom   89 type  3   force =    -0.00008759    0.00096942   -0.00132986
     atom   90 type  3   force =     0.00015567    0.00051671   -0.00077578
     atom   91 type  3   force =    -0.00056131    0.00007426    0.00078115
     atom   92 type  3   force =     0.00015463   -0.00042939    0.00083328
     atom   93 type  3   force =     0.00043385    0.00053088    0.00006292
     atom   94 type  3   force =    -0.00078069    0.00006916    0.00013271
     atom   95 type  3   force =     0.00045273   -0.00069611    0.00011135
     atom   96 type  3   force =     0.00044175   -0.00049645   -0.00003633
     atom   97 type  3   force =     0.00001693    0.00066091   -0.00002629
     atom   98 type  3   force =    -0.00033405    0.00109452   -0.00012423
     atom   99 type  3   force =    -0.00019749   -0.00016422   -0.00015750
     atom  100 type  3   force =     0.00075660   -0.00036388   -0.00009455
     atom  101 type  3   force =    -0.00024402   -0.00091552    0.00008573
     atom  102 type  3   force =     0.00139565    0.00018031    0.00022058
     atom  103 type  3   force =    -0.00042690   -0.00001560   -0.00012708
     atom  104 type  3   force =     0.00057523   -0.00046083   -0.00007984
     atom  105 type  3   force =     0.00026715    0.00005615   -0.00015095
     atom  106 type  3   force =    -0.00047123   -0.00007256    0.00010585
     atom  107 type  3   force =    -0.00002191   -0.00111919    0.00018560
     atom  108 type  3   force =     0.00020309   -0.00015219   -0.00014576
     atom  109 type  3   force =     0.00021661   -0.00049495   -0.00001381
     atom  110 type  3   force =     0.00011902    0.00030037   -0.00006753
     atom  111 type  3   force =    -0.00003003    0.00013069    0.00009530
     atom  112 type  3   force =    -0.00014289    0.00005174    0.00009701
     atom  113 type  4   force =    -0.00257625    0.00957416   -0.00334180
     atom  114 type  4   force =    -0.00596897   -0.00242914    0.00001139
     atom  115 type  4   force =     0.00612961    0.00491346   -0.00076529
     atom  116 type  4   force =     0.00102203   -0.00590850   -0.00004302
     atom  117 type  4   force =     0.00314253    0.00277446   -0.00064345
     atom  118 type  4   force =    -0.00210799    0.00046616   -0.00146395
     atom  119 type  4   force =    -0.00369829    0.00539995    0.00124901
     atom  120 type  4   force =    -0.00113181   -0.00297222   -0.00010537
     atom  121 type  4   force =     0.00669894    0.00753938   -0.00270612
     atom  122 type  4   force =    -0.00218833   -0.00279993    0.00019684
     atom  123 type  4   force =     0.00379103   -0.00010145    0.00044895
     atom  124 type  4   force =    -0.00277901    0.00394961    0.00052988
     atom  125 type  4   force =     0.00148332   -0.00170245    0.00003924
     atom  126 type  4   force =    -0.00061625    0.00210627    0.00076465
     atom  127 type  4   force =     0.00014003    0.00130920   -0.00183729
     atom  128 type  4   force =     0.00183846    0.00039467   -0.00069478
     atom  129 type  4   force =    -0.00176518    0.00140264   -0.00082950
     atom  130 type  4   force =    -0.00015696   -0.00201791   -0.00090046
     atom  131 type  4   force =    -0.00175413   -0.00207455    0.00194748
     atom  132 type  4   force =     0.00175327   -0.00004846    0.00063421
     atom  133 type  4   force =     0.00140937    0.00069465    0.00115401
     atom  134 type  4   force =    -0.00116457    0.00212571   -0.00089386
     atom  135 type  4   force =    -0.00111670   -0.00169485   -0.00081704
     atom  136 type  4   force =     0.00327368   -0.00113899   -0.00176668
     atom  137 type  4   force =     0.00101222    0.00011631   -0.00187176
     atom  138 type  4   force =     0.00108565    0.00124638   -0.00025719
     atom  139 type  4   force =     0.00162653    0.00089802   -0.00328288
     atom  140 type  4   force =     0.00036615    0.00170833    0.00069433
     atom  141 type  4   force =    -0.00193238   -0.00039135    0.00025418
     atom  142 type  4   force =     0.00068335   -0.00177424   -0.00035466
     atom  143 type  4   force =     0.00041571   -0.00012782    0.00132145
     atom  144 type  4   force =    -0.00055130   -0.00071386   -0.00027380
     atom  145 type  4   force =     0.00325615    0.00963990    0.00206889
     atom  146 type  4   force =    -0.00066785   -0.00116333    0.00034891
     atom  147 type  4   force =     0.00151840    0.00055142   -0.00019316
     atom  148 type  4   force =    -0.00226462    0.00146806    0.00014284
     atom  149 type  4   force =     0.00615111    0.01459009   -0.02465908
     atom  150 type  4   force =    -0.00303330   -0.00245779    0.00147252
     atom  151 type  4   force =     0.00015430   -0.00577711   -0.00678964
     atom  152 type  4   force =    -0.00012300   -0.00413370   -0.00037053
     atom  153 type  4   force =     0.00256141    0.00008186   -0.00142114
     atom  154 type  4   force =     0.00116442    0.00005387   -0.00045822
     atom  155 type  4   force =    -0.00291714   -0.00175956   -0.00667434
     atom  156 type  4   force =     0.00248776   -0.00253136   -0.00702218
     atom  157 type  4   force =     0.00039775    0.00347963   -0.00670864
     atom  158 type  4   force =    -0.00306213    0.00140325    0.00683319
     atom  159 type  4   force =    -0.00036327   -0.00360737    0.00649808
     atom  160 type  4   force =     0.00004707   -0.00267726   -0.00355391
     atom  161 type  4   force =     0.00233425   -0.00064949   -0.00303591
     atom  162 type  4   force =    -0.00165953    0.00169428   -0.00343072
     atom  163 type  4   force =    -0.00041024    0.00223255    0.00345594
     atom  164 type  4   force =    -0.00186559   -0.00184955    0.00338643
     atom  165 type  4   force =     0.00416738    0.00125770    0.00527173
     atom  166 type  4   force =    -0.00281919    0.00206410    0.00597092
     atom  167 type  4   force =    -0.00133831   -0.00429006    0.00528525
     atom  168 type  4   force =     0.00415721   -0.00128157   -0.00529626
     atom  169 type  4   force =    -0.00128056    0.00415558   -0.00531010
     atom  170 type  4   force =     0.00056773    0.00216331    0.00372727
     atom  171 type  4   force =    -0.00267719   -0.00101970    0.00294069
     atom  172 type  4   force =     0.00170879   -0.00164586    0.00364935
     atom  173 type  4   force =     0.00056991   -0.00219896   -0.00370462
     atom  174 type  4   force =     0.00146296    0.00149443   -0.00367758
     atom  175 type  4   force =     0.00261635    0.00163142   -0.00538348
     atom  176 type  4   force =    -0.00140285   -0.00060251   -0.00697501
     atom  177 type  4   force =     0.00031227   -0.00302268   -0.00530005
     atom  178 type  4   force =     0.00255552   -0.00183842    0.00537074
     atom  179 type  4   force =     0.00038579    0.00303266    0.00534584
     atom  180 type  4   force =    -0.00059433   -0.00020811    0.00011993
     atom  181 type  4   force =     0.00073920   -0.00102883    0.00045290
     atom  182 type  4   force =     0.00061447    0.00063257    0.00015887
     atom  183 type  4   force =    -0.00067072    0.00018497   -0.00027336
     atom  184 type  4   force =    -0.00002211   -0.00097392   -0.00029574
     atom  185 type  5   force =    -0.00311472   -0.00120702    0.00807995
     atom  186 type  5   force =     0.00239170    0.00048263    0.00804841
     atom  187 type  5   force =    -0.00028816    0.00281881    0.00807308
     atom  188 type  5   force =    -0.00261268    0.00154123   -0.00810847
     atom  189 type  5   force =     0.00038179   -0.00260416   -0.00778241
     atom  190 type  5   force =    -0.00027835    0.00008539   -0.00050333
     atom  191 type  5   force =    -0.00082726    0.00095722   -0.00106258
     atom  192 type  5   force =    -0.00057010   -0.00007816   -0.00068466
     atom  193 type  5   force =     0.00014883   -0.00012507    0.00076130
     atom  194 type  5   force =     0.00068080    0.00063634    0.00061458
     atom  195 type  2   force =    -0.01431849   -0.00671588    0.00298354
     atom  196 type  2   force =     0.01461366   -0.01109789    0.02460250
     atom  197 type  3   force =     0.00528553   -0.01045992   -0.01566042
     atom  198 type  3   force =    -0.00029569    0.00227281    0.00173343
     atom  199 type  3   force =    -0.01611194   -0.00390828   -0.00280620
     atom  200 type  3   force =    -0.00379361    0.00500723    0.00637728
     atom  201 type  3   force =    -0.00513451    0.00172200   -0.01208262
     atom  202 type  3   force =     0.00654239   -0.00176636    0.00077183
     atom  203 type  3   force =     0.00518564   -0.00160618    0.01164865
     atom  204 type  3   force =     0.00432776   -0.00505674   -0.00732946
     atom  205 type  3   force =     0.00706804    0.00210834    0.00043401
     atom  206 type  3   force =    -0.00464124    0.00559600    0.00919856
     atom  207 type  3   force =     0.00605898   -0.00450554   -0.01071106
     atom  208 type  3   force =     0.00115546    0.01197359   -0.00045259
     atom  209 type  3   force =    -0.00588753   -0.00195389   -0.00008612
     atom  210 type  3   force =    -0.00455673    0.00504894    0.00880083
     atom  211 type  4   force =     0.00267794   -0.00340755   -0.00276274
     atom  212 type  4   force =     0.00262607   -0.00165599    0.00389907
     atom  213 type  4   force =    -0.00456061    0.00582966    0.00229755
     atom  214 type  4   force =    -0.00188041    0.00043217    0.00062649
     atom  215 type  4   force =     0.00319113   -0.00307762    0.00054037
     atom  216 type  4   force =    -0.00552160    0.00290209   -0.00490185
     atom  217 type  4   force =     0.00575361   -0.01788584   -0.00438530
     atom  218 type  5   force =     0.01864715    0.00679442   -0.00463958
     atom  219 type  5   force =     0.00215089   -0.00708075   -0.00166754

     Total force =     0.100904     Total SCF correction =     0.000477

     BFGS Geometry Optimization
     Energy error            =      1.0E-02 Ry
     Gradient error          =      2.7E-02 Ry/Bohr

     number of scf cycles    =   1
     number of bfgs steps    =   0

     energy             new  =   -2938.0915088256 Ry

     new trust radius        =       0.0311040446 bohr
     new conv_thr            =       0.0000001000 Ry


ATOMIC_POSITIONS (angstrom)
Mg              10.2175018223        5.4304898076        5.8383845174
Mg              12.1336245749        6.1474797637        1.1560003713
Mg              10.5607260711        7.4387953278        3.4940268212
Mg              -0.7443244775       13.5818616202        5.8523377864
Mg              -0.4126037846       11.5749164768        1.1791199411
Mg               1.1600683269       12.8654029825        3.5155274149
O               11.4375478941        4.4575288835        0.1829003003
O               12.3727251206        7.6760372925        2.5201144369
O                9.1223648853        6.8777121181        4.8525878086
O                0.4615274491       14.5527798909        4.4894230952
O               -1.8565313310       12.1370919136        6.8261572647
O                1.3927148737       11.3373198174        2.1540225811
O               10.8169233845        5.4771382617        2.6594386030
O               11.7977681177        6.6264418110        4.9923573785
O               10.3196975459        6.9050685285        0.3210100132
O               -0.1596584557       13.5307988831        2.0164338140
O               -0.6610223063       12.1101144060        4.3529792127
O                0.8184826857       12.3861743444        6.6895057760
O               10.2295670949        4.0545930906        4.2877751170
O               13.3229802605        6.8357904699        6.6162636407
O                9.3730717108        8.1198878003        1.9462199343
O               -0.7416671724       14.9559475995        0.3925857339
O               -1.6047006555       10.8930425227        2.7294824192
O                2.3450588172       12.1769249839        5.0655507341
H               10.5676336554        1.7582890798        3.7774044923
H               15.1471413633        8.2718249210        6.1133060456
H                7.2163633743        8.9817147325        1.4407657086
H               -0.4098547866       17.2537497365        0.8959287819
H               -3.7603764925       10.0304901285        3.2324221575
H                4.1704765725       10.7404437686        5.5689061600
H                0.8056641179       18.9793141659        0.0620782847
H               -5.8625536119       10.2204197105        2.3983946917
H                5.0566856878        8.8249081788        4.7347299348
H               11.7825379269        0.0330750859        4.6108282998
H               16.0338422905       10.1873162880        6.9472187798
H                5.1146405577        8.7921282692        2.2745869345
H               11.8846980844        2.2053621961        6.0369353294
H               14.1013012679        9.1898938133        1.3640363213
H                6.9445579320        7.6198173008        3.7023808822
H                0.9080769618       16.8070622248        5.6452110088
H               -4.0325083122       11.3951823059        0.9724522442
H                3.1245838637        9.8225642752        3.3089257288
H                2.7234312277       15.5481730338        1.4787436866
H               -3.8498338353       13.5969501602        3.8151327007
H                1.1264933107        8.8799431412        6.1515512633
H               13.7002837797        3.4642982762        3.1940890495
H               12.1034636058       10.1326986844        5.5304995992
H                3.6237059959       14.1520043361        5.9000136807
H               -3.0910563416       15.0742510564        1.2270715740
H               -0.5324182022        8.7982183905        3.5635473421
H               14.6004335768        4.8603570713        5.7821240491
H               10.4440912725       10.2140966545        1.1092533761
H                6.0022956473       13.6434917730        5.6219069898
H               -3.8395724273       17.3893420719        0.9491080522
H               -2.1625475915        6.9924814224        3.2854906703
H               16.9792067966        5.3690910705        6.0601817566
H                8.8143798226       12.0198917332        1.3873492329
H                5.4036234253       14.9014201322        4.5236544684
H               -4.6299669435       16.2414047796        6.8600830581
H               -0.7736618084        6.8820628942        2.1872299359
H               16.3804625654        4.1110297761        0.1491725356
H               10.2031486936       12.1303792504        2.4856049201
H                5.0331265691       16.4266784633        1.3765027852
H               -5.7655605026       15.1582013099        3.7130648701
H                0.7325245114        6.4403310976        6.0493166647
H               16.0099942462        2.5858102591        3.2963305259
H               11.7094132660       12.5721909352        5.6327572940
H                5.5859899037       15.1425283102        2.4595196943
H               -4.9299312783       16.2787102229        4.7962160510
H               -0.6560395972        6.6035721785        0.1231167923
H               16.5628150626        3.8698942923        2.2133101438
H               10.3208277731       12.4088591509        4.5497416605
H                7.2649233677       14.3971354122        0.8076950812
H               -5.1243250606       18.1022817408        3.1422649762
H               -2.1410515260        5.5222271506        5.4805071334
H               18.2417785221        4.6153743273        3.8651344330
H                8.8358021738       13.4901495638        6.2015697448
H                7.4966152530       16.1185460882        1.1010903972
H               -6.7306802129       17.4457421933        3.4375649819
H               -0.7661031628        4.4608540880        5.7739357471
H               18.4734474989        2.8938846749        3.5717561567
H               10.2107428640       14.5516604376        5.9081308716
H                6.2502713430       16.6750455295        6.0194222564
H               -6.5892542052       16.0881456084        1.3465500994
H                0.3391230321        5.2620776667        3.6830231175
H               17.2271324865        2.3374521772        5.6626721084
H               11.3159434247       13.7504086799        0.9898270149
H                7.5685350252       15.5579979847        5.6416414481
H               -6.2813206451       17.7887381733        0.9684900145
H               -1.2875003706        4.6788536644        3.3052032219
H               18.5453950076        3.4544087790        6.0404796240
H                9.6893340791       14.3336284720        1.3676672074
H                2.3399419629       13.9784139449        0.7872432888
H               -2.2988526064       14.0496563766        3.1237002182
H               -0.0410333264        9.9967506937        5.4601089144
H               13.3167811430        5.0340401985        3.8856107847
H               10.9355710593        9.0156666079        6.2220360974
H                4.8355581217       13.4138527410        0.8697133314
H               -3.0573725938       16.4935815144        3.2061157285
H               -1.7780664295        8.1177373328        5.5425690373
H               15.8124407597        5.5986779068        3.8031062926
H                9.1991067375       10.8946014523        6.1395976515
H                3.6972111958       13.1539356632        2.8552949979
H               -2.2632287477       15.6372945659        5.1917399956
H               -1.4337625873        9.2334192183        0.5188623687
H               14.6740227360        5.8584536075        1.8175337652
H                9.5429194474        9.7784541711        4.1539959694
H                3.2890965408       14.6043221232        3.4788989740
H               -3.3153286184       14.5583207723        5.8153887979
H                0.0265171528        8.8620454575        1.1425203733
H               14.2658081808        4.4081024294        1.1939143241
H               11.0032135558       10.1505767945        3.5303352253
C               11.3147656751        3.2807190121        0.7974975145
C               13.4556485200        8.1609434221        3.1356919429
C                8.1588125180        7.5771545665        5.4717009452
C                0.3398348034       15.7336566973        3.8735513190
C               -2.8196031787       11.4393496336        6.2096535829
C                2.4808566593       10.8504537393        1.5363793948
C               10.9500703008        3.1281217464        2.1851669182
C               13.7704991899        7.9205289725        4.5208702104
C                8.2109244542        7.9690595736        6.8559139523
C               -0.0259656598       15.8856900476        2.4884381936
C               -2.7674493415       11.0473123361        4.8249916034
C                2.7927925315       11.0924241667        0.1521944270
C               10.8694981124        1.8294263066        2.7395199454
C               14.9338774507        8.4985327048        5.0763238131
C                7.1276623690        8.6853834049        0.4021069262
C               -0.1071489515       17.1823175692        1.9329731600
C               -3.8501808200       10.3284875652        4.2693218716
C                3.9572854926       10.5139499819        6.6057043198
C               11.1636106311        0.6704214329        2.0163329954
C               15.7907756346        9.3329890304        4.3520580452
C                5.9768640861        9.0082696110        6.6887531093
C                0.1870876142       18.3420415683        2.6570645523
C               -5.0013076512       10.0036370350        4.9935252079
C                4.8147452016        9.6788185277        0.3201826768
C               11.5179797700        0.8367988555        0.6517818930
C               15.4708866781        9.5566901019        2.9890562856
C                5.9436094257        8.6201432881        5.3238751588
C                0.5408028803       18.1766026288        4.0204350405
C               -5.0351088683       10.3925607554        6.3566221212
C                4.4938387896        9.4554664941        1.6834599364
C               11.5813297499        2.0911101878        0.0635723442
C               14.3518102608        8.9835685902        2.3991481731
C                6.9990163197        7.9424129671        4.7368078700
C                0.6039213570       16.9206424890        4.6101515735
C               -3.9787382585       11.0754159721        6.9462847210
C                3.3740686094       10.0292664429        2.2736225267
C               10.6562733942        4.2858990762        3.0767729702
C               12.9205445439        7.0853947607        5.4270212178
C                9.3554185844        7.6445051129        0.7498090698
C               -0.3238817239       14.7320701323        1.5828219320
C               -1.6201426266       11.3649170199        3.9186859723
C                1.9459308806       11.9257690634        6.2556155259
C                4.4493433705       14.4485201867        0.7473701164
C               -3.7608839595       15.6409519978        3.0836060470
C               -0.6884761474        7.9349703555        5.4201919618
C               15.4261016455        4.5637271876        3.9255539471
C               10.2879561390       11.0773979747        6.2617966108
C                5.5905269757       14.6700998087        5.5751071624
C               -4.5230868497       16.5178507601        0.9025412747
C               -1.0670581672        6.8360574165        3.2387523541
C               16.5671199743        4.3421007868        6.1069409928
C                9.9096677874       12.1762963454        1.4340642118
C                6.6151995269       15.6522731713        6.1697469032
C               -5.8858437891       16.9147454005        1.4972769023
C               -0.7293505122        5.4573408963        3.8333340585
C               17.5920291465        3.3601501191        5.5123401121
C               10.2475150493       13.5550238618        0.8394927895
C                5.4541409016       15.4143364574        1.4080299424
C               -5.0997174942       16.0284648793        3.7440337044
C               -0.3546354316        6.5818047373        6.0808287089
C               16.4309770542        3.5980806059        3.2648220433
C               10.6220694784       12.4305510515        5.6012563507
C                6.8077905919       15.3855363378        0.6695494955
C               -5.7506280654       17.2143011493        3.0051272971
C               -1.0563551221        5.4239793066        5.3424336464
C               17.7845933996        3.6267900508        4.0032837627
C                9.9205187839       13.5884619029        6.3396905863
C                3.0599173237       14.5107513440        1.4078733351
C               -3.1196644126       14.4066992625        3.7444695379
C                0.0601489141        9.1071014258        6.0807339409
C               14.0367118982        4.5016723386        3.2648854712
C               11.0366470526        9.9051538675        5.6012936317
N                4.3092841701       14.7828610772        6.3168853751
N               -3.9802519604       15.3543184046        1.6440286825
N               -0.3295673056        7.8888006945        3.9804617381
N               15.2863848406        4.2297517065        5.3651995324
N               10.6476222143       11.1237488212        0.6925320787
N                3.0094813229       13.9095433106        2.7855640387
N               -2.5743958077       14.6646082437        5.1216880951
N               -0.4359722645        9.4512306625        0.4490480823
N               13.9865423753        5.1028716184        1.8874124731
N               10.5415246820        9.5615006374        4.2237548334
O                8.2239515477        4.8457580177        6.7027351168
O                6.2077789277        5.1660801919        5.6826225842
H                6.4703481634        5.8065665122        3.0191057149
H                6.8469736620        4.0489503280        4.6749254994
H                8.3248675261        3.6407145534        4.0115500164
H                7.7759582523        1.3316189816        3.6920211528
H                7.6423192080        1.8525323784        5.3910400894
H                5.3994546352        5.7267517288        0.8675473525
H                4.8118053066        3.4554207724        1.6062614378
H                4.7033392793        3.9296662110        3.3134873543
H                3.9907462554        1.5335180208        3.0279729813
H                5.5225143222        1.1602482495        2.2367095095
H                5.1679169074        2.0477267351        5.1808572525
H                5.6455586117        0.4386789463        4.6348673154
H                8.0210606066        5.4264461325        2.2503708086
H                7.2844508263        3.0788839170        1.8540738157
C                6.7301071927        3.6864192456        2.5800718413
C                7.1883626018        1.9300266801        4.3995561997
C                5.7041138414        1.5063982294        4.3919798253
C                5.2347356860        3.2813948860        2.6019118276
C                5.0559723513        1.7929552197        3.0056697285
C                6.9498053820        5.1976344586        2.2457196522
C                6.9811284549        5.1628684161        6.7034618077
N                7.3285626164        3.3878090447        3.9660710300
N                6.3929492237        5.5338151163        0.9244333507



     Writing config-only to output data dir ./tmp/b_MOF_CO2_bound.save/ :
     XML data file
     NEW-OLD atomic charge density approx. for the potential

     Check: negative core charge=   -0.000001

     negative rho (up, down):  1.383E-04 0.000E+00

     total cpu time spent up to now is     1246.4 secs

     per-process dynamical memory:   356.2 Mb

     Self-consistent Calculation

     iteration #  1     ecut=    60.00 Ry     beta= 0.30
     Davidson diagonalization with overlap
     ethr =  1.00E-06,  avg # of iterations =  7.0

     negative rho (up, down):  1.384E-04 0.000E+00

     total cpu time spent up to now is     1357.9 secs

     total energy              =   -2938.09614323 Ry
     estimated scf accuracy    <       0.00265318 Ry

     iteration #  2     ecut=    60.00 Ry     beta= 0.30
     Davidson diagonalization with overlap
     ethr =  4.35E-07,  avg # of iterations =  5.0

     negative rho (up, down):  1.384E-04 0.000E+00

     total cpu time spent up to now is     1428.5 secs

     total energy              =   -2938.09606663 Ry
     estimated scf accuracy    <       0.00074249 Ry

     iteration #  3     ecut=    60.00 Ry     beta= 0.30
     Davidson diagonalization with overlap
     ethr =  1.22E-07,  avg # of iterations =  5.0

     negative rho (up, down):  1.383E-04 0.000E+00

     total cpu time spent up to now is     1503.8 secs

     total energy              =   -2938.09617323 Ry
     estimated scf accuracy    <       0.00009727 Ry

     iteration #  4     ecut=    60.00 Ry     beta= 0.30
     Davidson diagonalization with overlap
     ethr =  1.59E-08,  avg # of iterations =  5.0

     negative rho (up, down):  1.383E-04 0.000E+00

     total cpu time spent up to now is     1577.3 secs

     total energy              =   -2938.09618562 Ry
     estimated scf accuracy    <       0.00002664 Ry

     iteration #  5     ecut=    60.00 Ry     beta= 0.30
     Davidson diagonalization with overlap
     ethr =  4.37E-09,  avg # of iterations =  4.5

     negative rho (up, down):  1.382E-04 0.000E+00

     total cpu time spent up to now is     1654.4 secs

     total energy              =   -2938.09619059 Ry
     estimated scf accuracy    <       0.00000468 Ry

     iteration #  6     ecut=    60.00 Ry     beta= 0.30
     Davidson diagonalization with overlap
     ethr =  7.67E-10,  avg # of iterations =  7.5

     negative rho (up, down):  1.382E-04 0.000E+00

     total cpu time spent up to now is     1739.5 secs

     total energy              =   -2938.09619182 Ry
     estimated scf accuracy    <       0.00000110 Ry

     iteration #  7     ecut=    60.00 Ry     beta= 0.30
     Davidson diagonalization with overlap
     ethr =  1.80E-10,  avg # of iterations =  5.5

     negative rho (up, down):  1.382E-04 0.000E+00

     total cpu time spent up to now is     1825.5 secs

     total energy              =   -2938.09619214 Ry
     estimated scf accuracy    <       0.00000034 Ry

     iteration #  8     ecut=    60.00 Ry     beta= 0.30
     Davidson diagonalization with overlap
     ethr =  5.62E-11,  avg # of iterations =  5.0

     negative rho (up, down):  1.383E-04 0.000E+00

     total cpu time spent up to now is     1902.8 secs

     End of self-consistent calculation

          k = 0.0000 0.0000 0.0000 (154911 PWs)   bands (ev):

   -22.3687 -22.3675 -22.2406 -22.1836 -22.1754 -21.9584 -21.6043 -20.4652
   -20.4275 -20.4192 -20.3804 -20.3179 -20.2247 -20.1039 -19.9595 -19.9294
   -19.9187 -19.8613 -19.8446 -19.6237 -19.1539 -18.7788 -18.6180 -18.6057
   -18.5844 -18.4926 -18.1875 -18.0380 -18.0263 -18.0063 -17.9631 -17.9103
   -17.0157 -16.9652 -16.7978 -16.3518 -16.3064 -16.1257 -16.0986 -15.5300
   -15.3993 -15.3271 -15.2661 -15.2610 -15.1906 -14.8882 -14.7042 -14.6868
   -14.6591 -14.5915 -14.5707 -14.5047 -14.4294 -14.3743 -14.3717 -14.2071
   -14.1901 -14.1436 -13.9582 -13.2714 -12.9992 -12.9271 -12.8058 -12.7631
   -12.6459 -12.6280 -12.6103 -12.5271 -12.4886 -11.8049 -11.6143 -11.5852
   -11.5606 -11.5550 -11.5269 -11.5168 -11.4803 -11.3821 -11.1765 -11.1116
   -10.9518 -10.8702 -10.8681 -10.6960 -10.6662 -10.6559 -10.6485 -10.5737
   -10.5607 -10.4149 -10.2570 -10.2051 -10.0490  -9.8680  -9.6915  -9.6673
    -9.6464  -9.6185  -9.6112  -9.5389  -9.4437  -9.4027  -9.3294  -9.2838
    -8.8512  -8.8066  -8.7522  -8.6542  -8.6374  -8.6139  -8.5358  -8.5237
    -8.4960  -8.4663  -8.4075  -8.3480  -8.2936  -8.2767  -8.2660  -8.2441
    -8.1771  -7.9687  -7.9261  -7.7582  -7.7279  -7.6536  -7.6314  -7.6042
    -7.5635  -7.4818  -7.4590  -7.4450  -7.3778  -7.3698  -7.3348  -7.3145
    -7.2978  -7.2682  -7.2297  -7.2112  -7.1844  -7.1667  -7.1548  -7.1423
    -7.1266  -7.0767  -7.0324  -7.0012  -6.9618  -6.9578  -6.9294  -6.8887
    -6.8566  -6.8421  -6.7855  -6.7770  -6.6897  -6.6489  -6.6326  -6.6052
    -6.5560  -6.5428  -6.4978  -6.4784  -6.4531  -6.4395  -6.4164  -6.3873
    -6.3530  -6.3420  -6.3309  -6.3010  -6.2665  -6.1979  -6.1487  -6.1394
    -6.0916  -6.0728  -6.0506  -6.0308  -6.0219  -6.0007  -5.9725  -5.9630
    -5.9282  -5.8920  -5.8771  -5.8550  -5.7884  -5.7237  -5.6664  -5.6144
    -5.5978  -5.5725  -5.5653  -5.5289  -5.4978  -5.4647  -5.4365  -5.3951
    -5.3627  -5.3318  -5.3085  -5.2895  -5.2423  -5.2258  -5.2114  -5.1847
    -5.1582  -5.1449  -5.1318  -5.0540  -5.0035  -4.9980  -4.9511  -4.9096
    -4.9016  -4.8587  -4.7742  -4.7396  -4.6950  -4.6631  -4.5955  -4.5440
    -4.4785  -4.4142  -4.3880  -4.3693  -4.3288  -4.3092  -4.2819  -4.2711
    -4.2288  -4.2086  -4.1781  -4.1509  -4.1252  -4.1065  -4.0912  -4.0738
    -4.0592  -4.0114  -3.9819  -3.9485  -3.9150  -3.8855  -3.8592  -3.8238
    -3.7996  -3.7656  -3.7229  -3.6760  -3.6682  -3.5914  -3.5375  -3.4972
    -3.3643  -3.3489  -3.3153  -3.2559  -3.1895  -3.0540  -3.0391  -2.9935
    -2.9471  -2.8950  -2.8117  -2.7526  -2.6987  -2.6159  -2.5357  -2.5143
    -2.4475  -2.4101  -2.3775  -2.3528  -2.3386  -2.2714  -2.2066  -2.1464
    -2.1320  -2.0860  -2.0803  -2.0290  -1.9954  -1.8964  -1.8524  -1.8330
    -1.8160  -1.7378  -1.6945  -1.5625  -1.4986  -1.4396  -1.4392  -1.3617
    -1.2824  -1.2780  -1.2398  -1.2295  -1.2129  -1.1426  -0.5851  -0.5291
    -0.3385

          k = 0.0000 0.0000-1.5660 (154844 PWs)   bands (ev):

   -22.3541 -22.3300 -22.2797 -22.1912 -22.1656 -21.9577 -21.5924 -20.4941
   -20.4526 -20.4403 -20.3973 -20.3329 -20.2575 -20.1221 -19.9430 -19.9112
   -19.9069 -19.8406 -19.8289 -19.6040 -19.1474 -18.7423 -18.5805 -18.5682
   -18.5468 -18.4554 -18.2375 -18.0889 -18.0772 -18.0573 -17.9609 -17.9251
   -17.0023 -16.9520 -16.7848 -16.3520 -16.3089 -16.1285 -16.1065 -15.5263
   -15.3984 -15.3222 -15.2613 -15.2563 -15.1860 -14.8875 -14.7010 -14.6837
   -14.6556 -14.5893 -14.5510 -14.5029 -14.4756 -14.4216 -14.3728 -14.2426
   -14.1823 -14.1363 -13.9527 -13.3520 -12.9885 -12.9396 -12.8110 -12.7710
   -12.6528 -12.6356 -12.6187 -12.5335 -12.4408 -11.7226 -11.5919 -11.5359
   -11.5283 -11.4752 -11.4729 -11.4659 -11.4036 -11.3834 -11.1272 -11.0564
   -10.9054 -10.8914 -10.8072 -10.7290 -10.6989 -10.6822 -10.6087 -10.5887
   -10.5279 -10.3828 -10.2569 -10.2116 -10.0598  -9.8772  -9.6793  -9.6701
    -9.6308  -9.6227  -9.6106  -9.5756  -9.5544  -9.5443  -9.3621  -9.1823
    -9.0856  -8.8744  -8.7378  -8.7261  -8.7132  -8.6870  -8.6023  -8.5946
    -8.4090  -8.3056  -8.2563  -8.2468  -8.1930  -8.1067  -8.0515  -8.0251
    -7.9425  -7.9033  -7.8678  -7.8157  -7.7968  -7.7530  -7.6691  -7.6488
    -7.5653  -7.4985  -7.4599  -7.4211  -7.4106  -7.3760  -7.3542  -7.3409
    -7.3089  -7.2850  -7.2723  -7.2358  -7.2087  -7.1955  -7.1679  -7.1245
    -7.1128  -7.1030  -7.0808  -7.0217  -6.9805  -6.9550  -6.8581  -6.8410
    -6.8049  -6.7777  -6.7245  -6.6944  -6.6774  -6.6277  -6.5873  -6.5620
    -6.5506  -6.5300  -6.5052  -6.4530  -6.4449  -6.4263  -6.4058  -6.4015
    -6.3648  -6.3452  -6.3308  -6.3135  -6.2840  -6.2710  -6.2609  -6.2505
    -6.2414  -6.2207  -6.1814  -6.1640  -6.1416  -6.1279  -6.1053  -6.0922
    -6.0756  -6.0588  -6.0398  -6.0006  -5.9724  -5.9644  -5.9043  -5.8556
    -5.8043  -5.7390  -5.6222  -5.5839  -5.5485  -5.4975  -5.4588  -5.4399
    -5.4179  -5.3671  -5.3398  -5.3140  -5.2611  -5.2332  -5.2218  -5.1972
    -5.1744  -5.1617  -5.1581  -5.0348  -4.9925  -4.9881  -4.9709  -4.9015
    -4.7584  -4.7231  -4.6812  -4.6660  -4.6213  -4.5877  -4.5543  -4.5125
    -4.4340  -4.4158  -4.3789  -4.3667  -4.3372  -4.3082  -4.2758  -4.2664
    -4.2142  -4.2025  -4.1141  -4.0991  -4.0787  -4.0738  -4.0580  -4.0409
    -4.0139  -3.9948  -3.9156  -3.8593  -3.8440  -3.8149  -3.7576  -3.7477
    -3.6270  -3.6046  -3.5582  -3.5262  -3.4372  -3.4020  -3.3899  -3.3590
    -3.3216  -3.3129  -3.2932  -3.2335  -3.1402  -2.9587  -2.9057  -2.8793
    -2.8641  -2.8392  -2.7931  -2.7432  -2.7306  -2.6986  -2.6731  -2.5744
    -2.4229  -2.4152  -2.3767  -2.3425  -2.3146  -2.2642  -2.2039  -2.1731
    -2.1208  -2.0889  -2.0543  -2.0168  -1.9996  -1.9211  -1.8969  -1.8725
    -1.8592  -1.8117  -1.7895  -1.6114  -1.4819  -1.4402  -1.4281  -1.3661
    -1.2860  -1.2745  -1.2388  -1.2263  -1.1877  -1.1405  -0.5616  -0.5274
    -0.3373

     highest occupied level (ev):    -0.3373

!    total energy              =   -2938.09619225 Ry
     estimated scf accuracy    <       0.00000005 Ry

     The total energy is the sum of the following terms:
     one-electron contribution =   -6697.89104654 Ry
     hartree contribution      =    3546.08112303 Ry
     xc contribution           =    -693.91241552 Ry
     ewald contribution        =    1827.46504872 Ry
     one-center paw contrib.   =    -919.83890195 Ry

     convergence has been achieved in   8 iterations

     negative rho (up, down):  1.383E-04 0.000E+00

     Forces acting on atoms (cartesian axes, Ry/au):

     atom    1 type  1   force =    -0.02434420   -0.00236750    0.01024168
     atom    2 type  1   force =    -0.00084330    0.00259468   -0.00352031
     atom    3 type  1   force =    -0.00331403    0.00442446    0.00033003
     atom    4 type  1   force =     0.00073124   -0.00048626    0.00133785
     atom    5 type  1   force =     0.00088063   -0.00174373    0.00053684
     atom    6 type  1   force =     0.00217600   -0.00097319    0.00066506
     atom    7 type  2   force =    -0.00052367    0.00420513   -0.00472025
     atom    8 type  2   force =    -0.00404140   -0.00119701   -0.00284630
     atom    9 type  2   force =    -0.00025390    0.00321484   -0.00482863
     atom   10 type  2   force =     0.00173380   -0.00289724    0.00263100
     atom   11 type  2   force =     0.00011952    0.00318564    0.00232374
     atom   12 type  2   force =    -0.00160607   -0.00135628    0.00165251
     atom   13 type  2   force =     0.00327786    0.01726018   -0.00744246
     atom   14 type  2   force =    -0.00326535   -0.00298695   -0.00231621
     atom   15 type  2   force =     0.00717591    0.00071780   -0.00140971
     atom   16 type  2   force =    -0.00011531   -0.00463942    0.00247802
     atom   17 type  2   force =     0.00237811    0.00226823    0.00136804
     atom   18 type  2   force =    -0.00028917    0.00054995    0.00069536
     atom   19 type  2   force =    -0.00135788    0.00317182   -0.01502275
     atom   20 type  2   force =     0.00070990   -0.00169043    0.00332099
     atom   21 type  2   force =     0.00052513   -0.00352955   -0.00434357
     atom   22 type  2   force =    -0.00154139   -0.00037335   -0.00189245
     atom   23 type  2   force =     0.00071192   -0.00074818   -0.00297327
     atom   24 type  2   force =     0.00001024    0.00104224   -0.00159862
     atom   25 type  3   force =     0.00209358   -0.00042395    0.00003838
     atom   26 type  3   force =    -0.00029177    0.00042727   -0.00014461
     atom   27 type  3   force =    -0.00042340   -0.00115369   -0.00092824
     atom   28 type  3   force =     0.00068661   -0.00003124    0.00008824
     atom   29 type  3   force =    -0.00030453    0.00034204    0.00013924
     atom   30 type  3   force =     0.00002216   -0.00057456    0.00005997
     atom   31 type  3   force =     0.00050870   -0.00040119   -0.00029348
     atom   32 type  3   force =     0.00045797    0.00060913   -0.00034343
     atom   33 type  3   force =    -0.00032384   -0.00062139   -0.00027574
     atom   34 type  3   force =     0.00053196    0.00080848    0.00041890
     atom   35 type  3   force =    -0.00085877   -0.00014878    0.00037509
     atom   36 type  3   force =     0.00076339   -0.00018792    0.00041691
     atom   37 type  3   force =    -0.00142300    0.00025063    0.00093227
     atom   38 type  3   force =     0.00009732   -0.00103444    0.00016247
     atom   39 type  3   force =     0.00159008    0.00562443    0.00362269
     atom   40 type  3   force =    -0.00088041   -0.00045261   -0.00018367
     atom   41 type  3   force =     0.00097298   -0.00079143   -0.00037654
     atom   42 type  3   force =     0.00005907    0.00125795   -0.00015309
     atom   43 type  3   force =     0.00007277   -0.00020642   -0.00012633
     atom   44 type  3   force =     0.00020712   -0.00010561   -0.00008186
     atom   45 type  3   force =     0.00010790    0.00016781   -0.00007671
     atom   46 type  3   force =     0.00002977    0.00019953    0.00011045
     atom   47 type  3   force =    -0.00028855   -0.00002729    0.00016782
     atom   48 type  3   force =    -0.00021983    0.00007835    0.00011490
     atom   49 type  3   force =    -0.00080942   -0.00063677    0.00020612
     atom   50 type  3   force =     0.00060302   -0.00001511    0.00009640
     atom   51 type  3   force =    -0.00026470   -0.00028020   -0.00013008
     atom   52 type  3   force =     0.00014196    0.00006417   -0.00022115
     atom   53 type  3   force =    -0.00022610   -0.00061817   -0.00007794
     atom   54 type  3   force =     0.00042592    0.00004808   -0.00010725
     atom   55 type  3   force =    -0.00024390    0.00034565   -0.00012433
     atom   56 type  3   force =    -0.00024298    0.00045665    0.00009770
     atom   57 type  3   force =    -0.00032513   -0.00051474    0.00009066
     atom   58 type  3   force =    -0.00052896    0.00026547    0.00138864
     atom   59 type  3   force =     0.00008612   -0.00077088    0.00142741
     atom   60 type  3   force =     0.00053235    0.00038694    0.00134639
     atom   61 type  3   force =    -0.00057771   -0.00029485   -0.00136264
     atom   62 type  3   force =     0.00044928   -0.00036462   -0.00137810
     atom   63 type  3   force =    -0.00017298    0.00068247    0.00002324
     atom   64 type  3   force =    -0.00082326   -0.00060040    0.00023004
     atom   65 type  3   force =     0.00081676   -0.00016154   -0.00001333
     atom   66 type  3   force =    -0.00014270   -0.00070789   -0.00004200
     atom   67 type  3   force =     0.00064324    0.00019253   -0.00002080
     atom   68 type  3   force =     0.00182160    0.00021728   -0.00078337
     atom   69 type  3   force =    -0.00119065    0.00124208   -0.00113188
     atom   70 type  3   force =    -0.00072707   -0.00167160   -0.00084898
     atom   71 type  3   force =     0.00179897   -0.00023479    0.00079449
     atom   72 type  3   force =    -0.00071357    0.00168512    0.00078018
     atom   73 type  3   force =     0.00006112    0.00069177   -0.00031517
     atom   74 type  3   force =     0.00029902   -0.00379289   -0.00321713
     atom   75 type  3   force =     0.00067233   -0.00044635   -0.00034592
     atom   76 type  3   force =     0.00000265   -0.00074226    0.00031865
     atom   77 type  3   force =     0.00069653    0.00037051    0.00032313
     atom   78 type  3   force =     0.00024119    0.00008050    0.00052860
     atom   79 type  3   force =     0.00086157    0.00036950    0.00000809
     atom   80 type  3   force =    -0.00009044   -0.00031482    0.00053843
     atom   81 type  3   force =     0.00027999   -0.00015582   -0.00055037
     atom   82 type  3   force =    -0.00008340    0.00035958   -0.00055934
     atom   83 type  3   force =     0.00051377   -0.00039770    0.00022039
     atom   84 type  3   force =    -0.00020050    0.00079757    0.00007076
     atom   85 type  3   force =    -0.00066367   -0.00016614    0.00028847
     atom   86 type  3   force =     0.00054649    0.00038121   -0.00023039
     atom   87 type  3   force =    -0.00070038    0.00020899   -0.00026124
     atom   88 type  3   force =     0.00041438    0.00011115   -0.00071535
     atom   89 type  3   force =    -0.00009891    0.00040855   -0.00049101
     atom   90 type  3   force =    -0.00020243   -0.00047617   -0.00076677
     atom   91 type  3   force =     0.00041373   -0.00014408    0.00074550
     atom   92 type  3   force =    -0.00014593    0.00046915    0.00076284
     atom   93 type  3   force =    -0.00038850    0.00026190   -0.00008145
     atom   94 type  3   force =     0.00004083   -0.00057074   -0.00008097
     atom   95 type  3   force =     0.00059743    0.00018128   -0.00005498
     atom   96 type  3   force =    -0.00033045   -0.00032085    0.00014213
     atom   97 type  3   force =     0.00024218   -0.00023397    0.00008925
     atom   98 type  3   force =    -0.00016084    0.00004583   -0.00017312
     atom   99 type  3   force =    -0.00003136   -0.00031295   -0.00017391
     atom  100 type  3   force =     0.00028146    0.00001860   -0.00013576
     atom  101 type  3   force =    -0.00020549   -0.00017499    0.00015277
     atom  102 type  3   force =     0.00010632   -0.00024077    0.00024990
     atom  103 type  3   force =    -0.00030711   -0.00002529   -0.00022348
     atom  104 type  3   force =     0.00067339    0.00020158   -0.00016777
     atom  105 type  3   force =    -0.00039498   -0.00010119   -0.00024697
     atom  106 type  3   force =    -0.00032217    0.00020611    0.00015535
     atom  107 type  3   force =     0.00024692   -0.00096614    0.00020796
     atom  108 type  3   force =     0.00007922   -0.00016299   -0.00030698
     atom  109 type  3   force =     0.00029729   -0.00043025   -0.00018289
     atom  110 type  3   force =    -0.00009596    0.00049810   -0.00037191
     atom  111 type  3   force =    -0.00011414    0.00019700    0.00027041
     atom  112 type  3   force =     0.00004772    0.00026165    0.00003824
     atom  113 type  4   force =    -0.00304882   -0.00803363    0.00374383
     atom  114 type  4   force =     0.00497489    0.00264938    0.00322808
     atom  115 type  4   force =     0.00231266    0.00755393   -0.00069902
     atom  116 type  4   force =     0.00000881    0.00463223   -0.00271258
     atom  117 type  4   force =    -0.00229794   -0.00099073   -0.00203717
     atom  118 type  4   force =    -0.00076999    0.00001566   -0.00078342
     atom  119 type  4   force =    -0.00110913    0.00165734   -0.00472175
     atom  120 type  4   force =     0.00018505   -0.00126315    0.00060037
     atom  121 type  4   force =     0.00491009    0.00524378   -0.00319532
     atom  122 type  4   force =    -0.00122016   -0.00058245   -0.00040167
     atom  123 type  4   force =     0.00039301   -0.00140337   -0.00080794
     atom  124 type  4   force =     0.00217965    0.00021625   -0.00077817
     atom  125 type  4   force =     0.00045657    0.00210512    0.00032544
     atom  126 type  4   force =    -0.00205678    0.00084864   -0.00142173
     atom  127 type  4   force =     0.00204082    0.00142178   -0.00037142
     atom  128 type  4   force =     0.00155168   -0.00109184    0.00142941
     atom  129 type  4   force =     0.00053678    0.00225997    0.00155152
     atom  130 type  4   force =    -0.00178509   -0.00096353    0.00164622
     atom  131 type  4   force =    -0.00071287    0.00138275   -0.00156856
     atom  132 type  4   force =    -0.00035284   -0.00053735   -0.00060642
     atom  133 type  4   force =     0.00157414   -0.00004556   -0.00225749
     atom  134 type  4   force =    -0.00055238   -0.00089881    0.00098641
     atom  135 type  4   force =     0.00041134   -0.00003837    0.00051743
     atom  136 type  4   force =    -0.00007128   -0.00013270    0.00034384
     atom  137 type  4   force =    -0.00019671    0.00119458    0.00139399
     atom  138 type  4   force =    -0.00157370   -0.00114839    0.00027002
     atom  139 type  4   force =     0.00039037    0.00330896    0.00156255
     atom  140 type  4   force =    -0.00048006   -0.00210995   -0.00030755
     atom  141 type  4   force =     0.00207457    0.00093039   -0.00041899
     atom  142 type  4   force =    -0.00198470    0.00073445   -0.00058905
     atom  143 type  4   force =    -0.00018396    0.00135476    0.00154324
     atom  144 type  4   force =     0.00048913   -0.00078548    0.00299725
     atom  145 type  4   force =     0.00504790    0.00676863    0.00022119
     atom  146 type  4   force =    -0.00114395    0.00046032   -0.00286545
     atom  147 type  4   force =    -0.00056698   -0.00112669   -0.00280450
     atom  148 type  4   force =     0.00165694   -0.00033144   -0.00311861
     atom  149 type  4   force =    -0.01151137   -0.02364982    0.02328107
     atom  150 type  4   force =     0.00528494    0.00244289   -0.00124549
     atom  151 type  4   force =    -0.00416478    0.00617405    0.00658891
     atom  152 type  4   force =    -0.00102757    0.00785215   -0.00080000
     atom  153 type  4   force =    -0.00451506   -0.00284676    0.00129664
     atom  154 type  4   force =     0.00137929   -0.00038215    0.00106911
     atom  155 type  4   force =    -0.00036696    0.00022830    0.00153127
     atom  156 type  4   force =     0.00025885   -0.00006377    0.00142181
     atom  157 type  4   force =     0.00013493    0.00015729    0.00152458
     atom  158 type  4   force =    -0.00024804   -0.00003164   -0.00150760
     atom  159 type  4   force =     0.00053054   -0.00013042   -0.00142739
     atom  160 type  4   force =     0.00047662    0.00068637    0.00656628
     atom  161 type  4   force =    -0.00023472    0.00074758    0.00658752
     atom  162 type  4   force =    -0.00011542   -0.00079668    0.00661329
     atom  163 type  4   force =     0.00057549   -0.00041111   -0.00667585
     atom  164 type  4   force =     0.00012780    0.00076441   -0.00655929
     atom  165 type  4   force =     0.00018764    0.00007007   -0.00077108
     atom  166 type  4   force =    -0.00032014    0.00050856   -0.00174370
     atom  167 type  4   force =     0.00015454   -0.00016632   -0.00077389
     atom  168 type  4   force =     0.00018202   -0.00009712    0.00077009
     atom  169 type  4   force =     0.00009241    0.00018601    0.00083536
     atom  170 type  4   force =     0.00009516    0.00019632   -0.00542561
     atom  171 type  4   force =     0.00020538   -0.00035221   -0.00499808
     atom  172 type  4   force =     0.00016758   -0.00013957   -0.00533839
     atom  173 type  4   force =     0.00007516   -0.00021678    0.00540324
     atom  174 type  4   force =     0.00020337    0.00007070    0.00533859
     atom  175 type  4   force =     0.00076763    0.00031968    0.00065700
     atom  176 type  4   force =    -0.00266906   -0.00224223    0.00014947
     atom  177 type  4   force =    -0.00020913   -0.00084809    0.00067223
     atom  178 type  4   force =     0.00078236   -0.00021732   -0.00065962
     atom  179 type  4   force =    -0.00018974    0.00087920   -0.00070692
     atom  180 type  4   force =    -0.00041307   -0.00024647   -0.00044853
     atom  181 type  4   force =     0.00045522   -0.00006072   -0.00045971
     atom  182 type  4   force =    -0.00031272    0.00056745   -0.00046464
     atom  183 type  4   force =    -0.00041478    0.00022504    0.00060986
     atom  184 type  4   force =     0.00011970   -0.00032321    0.00040544
     atom  185 type  5   force =    -0.00116848   -0.00180697   -0.00120107
     atom  186 type  5   force =     0.00328993    0.00008012   -0.00129516
     atom  187 type  5   force =    -0.00107581    0.00213069   -0.00117510
     atom  188 type  5   force =    -0.00124549    0.00198639    0.00124485
     atom  189 type  5   force =    -0.00094013   -0.00239285    0.00122093
     atom  190 type  5   force =     0.00000704   -0.00009623   -0.00014883
     atom  191 type  5   force =    -0.00059330    0.00013828   -0.00055465
     atom  192 type  5   force =     0.00027475   -0.00022803   -0.00026334
     atom  193 type  5   force =    -0.00043104   -0.00004881    0.00014743
     atom  194 type  5   force =    -0.00016438    0.00039569    0.00045899
     atom  195 type  2   force =     0.01026987   -0.01200926    0.00261772
     atom  196 type  2   force =    -0.00174376   -0.01196312   -0.00020777
     atom  197 type  3   force =    -0.00054207   -0.00342038   -0.00740076
     atom  198 type  3   force =     0.00409826   -0.00038723   -0.00254028
     atom  199 type  3   force =     0.00982807    0.00248410   -0.00256048
     atom  200 type  3   force =    -0.00132281    0.00144659    0.00335051
     atom  201 type  3   force =    -0.00070919    0.00082637   -0.00207527
     atom  202 type  3   force =     0.00382835   -0.00146146   -0.00016140
     atom  203 type  3   force =     0.00219861   -0.00051689    0.00429994
     atom  204 type  3   force =     0.00123274   -0.00135537   -0.00262650
     atom  205 type  3   force =     0.00378539    0.00093010    0.00055449
     atom  206 type  3   force =    -0.00065006    0.00078598    0.00381774
     atom  207 type  3   force =     0.00017317    0.00153084   -0.00273415
     atom  208 type  3   force =     0.00061158    0.00736902    0.00069450
     atom  209 type  3   force =    -0.00470001   -0.00128350   -0.00023947
     atom  210 type  3   force =    -0.00018269    0.00008693    0.00209523
     atom  211 type  4   force =    -0.00105219    0.00456977    0.00430224
     atom  212 type  4   force =    -0.00353522    0.00541269   -0.00431747
     atom  213 type  4   force =     0.00509336    0.00341189   -0.00622940
     atom  214 type  4   force =     0.00696668   -0.00580398    0.00382808
     atom  215 type  4   force =     0.00028889    0.00465121    0.00524294
     atom  216 type  4   force =     0.00156275   -0.00736537   -0.01066140
     atom  217 type  4   force =    -0.00191501   -0.00915686    0.01741557
     atom  218 type  5   force =    -0.01679828   -0.00136874    0.00017721
     atom  219 type  5   force =     0.00309857   -0.00559079   -0.00031354

     Total force =     0.079357     Total SCF correction =     0.000323
     Energy error            =      4.7E-03 Ry
     Gradient error          =      2.4E-02 Ry/Bohr

     number of scf cycles    =   2
     number of bfgs steps    =   1

     energy             old  =   -2938.0915088256 Ry
     energy             new  =   -2938.0961922464 Ry

     CASE: energy            _new < energy            _old

     new trust radius        =       0.0403687025 bohr
     new conv_thr            =       0.0000000243 Ry


ATOMIC_POSITIONS (angstrom)
Mg              10.1981753738        5.4296153902        5.8474436155
Mg              12.1323884095        6.1494309948        1.1534211072
Mg              10.5577613987        7.4422229494        3.4941534181
Mg              -0.7436768884       13.5813027657        5.8533774804
Mg              -0.4117127166       11.5734541959        1.1795741387
Mg               1.1619984762       12.8644724388        3.5160375661
O               11.4371871639        4.4564618619        0.1805804942
O               12.3725568005        7.6767104988        2.5191179165
O                9.1216508469        6.8805371804        4.8485843972
O                0.4626873165       14.5533833464        4.4904583510
O               -1.8581298418       12.1386084502        6.8272054342
O                1.3920897693       11.3358799010        2.1551087843
O               10.8177352572        5.4807417653        2.6578013258
O               11.7986072809        6.6253018649        4.9914049530
O               10.3235559901        6.9079452072        0.3212711487
O               -0.1603678292       13.5310134310        2.0172225056
O               -0.6615097154       12.1101127623        4.3532923017
O                0.8195033767       12.3862208923        6.6895464495
O               10.2258576477        4.0551544988        4.2838326283
O               13.3233602352        6.8348996585        6.6171500705
O                9.3738137989        8.1181001394        1.9448208735
O               -0.7425686311       14.9557683969        0.3921824714
O               -1.6043525316       10.8930030146        2.7287994794
O                2.3445360743       12.1776447765        5.0653552082
H               10.5692287094        1.7578957716        3.7773735202
H               15.1468791075        8.2721749977        6.1129177690
H                7.2160294178        8.9808837145        1.4401508869
H               -0.4092828570       17.2537159721        0.8962765892
H               -3.7606033533       10.0308064040        3.2328327574
H                4.1704552302       10.7399354619        5.5693112709
H                0.8059501971       18.9791964182        0.0621043902
H               -5.8624109760       10.2206669223        2.3983428873
H                5.0564645475        8.8244585210        4.7346672410
H               11.7828554112        0.0333670117        4.6108977094
H               16.0335270515       10.1872815414        6.9472515851
H                5.1151177122        8.7921441217        2.2747477819
H               11.8835349118        2.2055410084        6.0378605866
H               14.1014725487        9.1890188389        1.3645562194
H                6.9457056154        7.6242348328        3.7055812473
H                0.9072886304       16.8067791113        5.6446742295
H               -4.0317807338       11.3944443030        0.9718635796
H                3.1247973534        9.8235595501        3.3084735351
H                2.7235072519       15.5479705771        1.4786459700
H               -3.8495824255       13.5970056172        3.8150406063
H                1.1264016222        8.8801205268        6.1514609330
H               13.7003479472        3.4645156814        3.1941752776
H               12.1032488667       10.1326962362        5.5306088748
H                3.6235025760       14.1517979416        5.8997635493
H               -3.0912127749       15.0737707271        1.2268130402
H               -0.5321461535        8.7984199214        3.5632642320
H               14.6001527350        4.8604266292        5.7823863076
H               10.4439704229       10.2138564816        1.1094554208
H                6.0020423600       13.6434742630        5.6218637754
H               -3.8393574405       17.3893643451        0.9490718079
H               -2.1624399013        6.9925967631        3.2854267702
H               16.9789846821        5.3691059359        6.0602287741
H                8.8144957697       12.0196615875        1.3873966889
H                5.4035656315       14.9012766942        4.5260805483
H               -4.6297793375       16.2413407233        6.8625324601
H               -0.7737507948        6.8822209574        2.1896330995
H               16.3803831746        4.1111661424        0.1467523926
H               10.2030065852       12.1302352706        2.4831836538
H                5.0331137050       16.4268781827        1.3764541564
H               -5.7658363766       15.1581866383        3.7131904396
H                0.7327727090        6.4402827313        6.0492367144
H               16.0100130344        2.5856254695        3.2963665629
H               11.7096047828       12.5722989392        5.6328071510
H                5.5872115590       15.1430656589        2.4576362610
H               -4.9310299288       16.2793525056        4.7943058867
H               -0.6561995605        6.6022575734        0.1212102576
H               16.5640206077        3.8693415224        2.2151937341
H               10.3206911272       12.4101779602        4.5516242411
H                7.2649608302       14.3975542084        0.8075509569
H               -5.1244681317       18.0987479363        3.1397507311
H               -2.1406776402        5.5219451548        5.4803335751
H               18.2417979429        4.6149691289        3.8652748283
H                8.8361975170       13.4903639988        6.2017202426
H                7.4965549905       16.1184833278        1.1015320547
H               -6.7301545197       17.4459847638        3.4377814304
H               -0.7661626419        4.4608800428        5.7743849575
H               18.4734047001        2.8939080889        3.5713072875
H               10.2106925166       14.5516969409        5.9076542083
H                6.2505533213       16.6748510904        6.0194984583
H               -6.5893362749       16.0887371152        1.3465368063
H                0.3388250153        5.2619997583        3.6831432615
H               17.2274439189        2.3376705449        5.6625881241
H               11.3156199768       13.7505335371        0.9897253738
H                7.5685702157       15.5580166913        5.6410901861
H               -6.2813927873       17.7892024858        0.9678868791
H               -1.2875563256        4.6787632546        3.3046174957
H               18.5454428024        3.4543589531        6.0410564658
H                9.6893053507       14.3337393652        1.3682667629
H                2.3398715583       13.9786867988        0.7872208568
H               -2.2990464418       14.0493974030        3.1236971200
H               -0.0406184881        9.9966484022        5.4601126243
H               13.3167411666        5.0337480644        3.8856700475
H               10.9356936185        9.0157336065        6.2220723579
H                4.8353883595       13.4141746826        0.8695950262
H               -3.0574419261       16.4933841777        3.2059879304
H               -1.7777222609        8.1176467752        5.5424770480
H               15.8122739006        5.5983420739        3.8032041505
H                9.1995405684       10.8945335747        6.1397797176
H                3.6969447923       13.1539190768        2.8551513925
H               -2.2627433912       15.6372665682        5.1916364493
H               -1.4338817792        9.2333853182        0.5187007938
H               14.6737368623        5.8585341018        1.8176383818
H                9.5430336799        9.7776773555        4.1541480383
H                3.2891907111       14.6042010970        3.4787095974
H               -3.3151245616       14.5579757792        5.8152959610
H                0.0265030075        8.8623702188        1.1423207967
H               14.2657443811        4.4082341304        1.1940720813
H               11.0031976719       10.1507183601        3.5303803999
C               11.3125758797        3.2794281922        0.7984056502
C               13.4564368936        8.1615684869        3.1372668869
C                8.1616165926        7.5821778156        5.4711510797
C                0.3401188757       15.7342947775        3.8722187277
C               -2.8198618268       11.4396267361        6.2084854905
C                2.4799046692       10.8505889766        1.5355971742
C               10.9485178263        3.1304069885        2.1832097093
C               13.7702794604        7.9191002678        4.5211336985
C                8.2151491356        7.9736768062        6.8536172723
C               -0.0271588402       15.8846399549        2.4882964992
C               -2.7662201759       11.0466012334        4.8247211018
C                2.7930930956       11.0936106740        0.1519605715
C               10.8701264859        1.8299852881        2.7396891526
C               14.9327072581        8.4995225199        5.0758408631
C                7.1286944229        8.6864340964        0.4014231105
C               -0.1058901197       17.1818939692        1.9334789751
C               -3.8504026663       10.3299719704        4.2698502650
C                3.9563733241       10.5129284111        6.6062594006
C               11.1627833233        0.6705268166        2.0161023526
C               15.7910837912        9.3327141153        4.3519363809
C                5.9780163862        9.0084375861        6.6879697951
C                0.1864998466       18.3421858330        2.6573001604
C               -5.0014130559       10.0031543847        4.9935534927
C                4.8156066684        9.6784421134        0.3198664707
C               11.5181610869        0.8374123644        0.6519482621
C               15.4704176038        9.5564721241        2.9891173578
C                5.9442447734        8.6220003314        5.3237373091
C                0.5406693624       18.1760429036        4.0204753632
C               -5.0346277048       10.3929066480        6.3564876887
C                4.4930594643        9.4553384123        1.6830760266
C               11.5813539747        2.0917348604        0.0646855345
C               14.3518975116        8.9829907031        2.4005326521
C                7.0023656320        7.9483477059        4.7374819324
C                0.6031815164       16.9205481631        4.6088518349
C               -3.9785986724       11.0750183134        6.9448662683
C                3.3742554712       10.0295069417        2.2721431060
C               10.6523521188        4.2783774897        3.0813586037
C               12.9222875317        7.0859114349        5.4268178663
C                9.3534328970        7.6459299108        0.7511586896
C               -0.3244157435       14.7347619200        1.5823309595
C               -1.6216399221       11.3635532771        3.9189282975
C                1.9469212509       11.9255977324        6.2560106607
C                4.4483661175       14.4481496716        0.7462886196
C               -3.7600768908       15.6402279858        3.0823760262
C               -0.6883015608        7.9359994962        5.4190978129
C               15.4251426081        4.5640959206        3.9266904564
C               10.2881150251       11.0763469500        6.2628804410
C                5.5907719409       14.6697011117        5.5773315490
C               -4.5225621339       16.5180369758        0.9049178059
C               -1.0675686671        6.8361333067        3.2410333557
C               16.5672878901        4.3425117734        6.1046364380
C                9.9092193053       12.1761622355        1.4317973834
C                6.6164317183       15.6526515852        6.1708145879
C               -5.8867714279       16.9155580816        1.4980624034
C               -0.7296416268        5.4560855020        3.8344040755
C               17.5932558186        3.3597519972        5.5112652263
C               10.2472094915       13.5562520312        0.8384458963
C                5.4543426558       15.4150242618        1.4064084328
C               -5.1003503757       16.0280142350        3.7424050415
C               -0.3540860509        6.5812862205        6.0792283395
C               16.4311696643        3.5973730833        3.2664388599
C               10.6225689886       12.4309945758        5.6028490902
C                6.8088805977       15.3861385995        0.6683956696
C               -5.7523117249       17.2130444184        3.0032906583
C               -1.0563714694        5.4227388903        5.3413100733
C               17.7856739271        3.6261809616        4.0044328246
C                9.9205320071       13.5897202031        6.3408098021
C                3.0595534903       14.5105743590        1.4076877653
C               -3.1192403990       14.4063880514        3.7443696784
C                0.0601648548        9.1075508993        6.0805511853
C               14.0363263201        4.5018325537        3.2651075934
C               11.0366992857        9.9047298767        5.6014100893
N                4.3078625534       14.7816507994        6.3185124466
N               -3.9779952899       15.3544895383        1.6456013032
N               -0.3301700255        7.8906098302        3.9820995729
N               15.2850631569        4.2311408394        5.3635859730
N               10.6472689562       11.1218707939        0.6909961333
N                3.0094085493       13.9095198287        2.7853537826
N               -2.5749111649       14.6649376172        5.1211271390
N               -0.4359945478        9.4510982328        0.4487324291
N               13.9863732327        5.1028136133        1.8876926666
N               10.5416310126        9.5618675064        4.2241465669
O                8.2250324797        4.8380719524        6.7048264951
O                6.2109303616        5.1572170079        5.6892563831
H                6.4715311379        5.8020376353        3.0112150559
H                6.8488882517        4.0493839605        4.6741631061
H                8.3252423768        3.6408542230        4.0095350586
H                7.7742756397        1.3336940931        3.6953983858
H                7.6405683077        1.8534061589        5.3867219602
H                5.4031097375        5.7255565648        0.8676800512
H                4.8142954362        3.4547293913        1.6115440128
H                4.7051242580        3.9276219602        3.3102020023
H                3.9945243349        1.5345480672        3.0283617856
H                5.5209272473        1.1621628716        2.2410865750
H                5.1696598827        2.0472387399        5.1765937632
H                5.6461727134        0.4455448798        4.6350815872
H                8.0171603444        5.4252862898        2.2502306320
H                7.2831144569        3.0803083981        1.8575032733
C                6.7303279476        3.6877115504        2.5814103964
C                7.1873601108        1.9322089161        4.3985212998
C                5.7053454430        1.5096554344        4.3895755443
C                5.2376131547        3.2786871000        2.6039473111
C                5.0569865962        1.7943774971        3.0083705667
C                6.9490547724        5.1948425418        2.2391864813
C                6.9817710491        5.1535134590        6.7107413683
N                7.3254878302        3.3890025538        3.9648872267
N                6.3950467986        5.5291544647        0.9238241887



     Writing config-only to output data dir ./tmp/b_MOF_CO2_bound.save/ :
     XML data file
     NEW-OLD atomic charge density approx. for the potential

     Check: negative core charge=   -0.000001

     negative rho (up, down):  1.388E-04 0.000E+00

     total cpu time spent up to now is     1937.4 secs

     per-process dynamical memory:   356.2 Mb

     Self-consistent Calculation

     iteration #  1     ecut=    60.00 Ry     beta= 0.30
     Davidson diagonalization with overlap
     ethr =  1.00E-06,  avg # of iterations =  5.0

     negative rho (up, down):  1.388E-04 0.000E+00

     total cpu time spent up to now is     2037.2 secs

     total energy              =   -2938.10016687 Ry
     estimated scf accuracy    <       0.00088019 Ry

     iteration #  2     ecut=    60.00 Ry     beta= 0.30
     Davidson diagonalization with overlap
     ethr =  1.44E-07,  avg # of iterations =  3.0

     negative rho (up, down):  1.388E-04 0.000E+00

     total cpu time spent up to now is     2112.5 secs

     total energy              =   -2938.10016812 Ry
     estimated scf accuracy    <       0.00026546 Ry

     iteration #  3     ecut=    60.00 Ry     beta= 0.30
     Davidson diagonalization with overlap
     ethr =  4.35E-08,  avg # of iterations =  5.0

     negative rho (up, down):  1.387E-04 0.000E+00

     total cpu time spent up to now is     2190.3 secs

     total energy              =   -2938.10021492 Ry
     estimated scf accuracy    <       0.00004863 Ry

     iteration #  4     ecut=    60.00 Ry     beta= 0.30
     Davidson diagonalization with overlap
     ethr =  7.97E-09,  avg # of iterations =  6.0

     negative rho (up, down):  1.386E-04 0.000E+00

     total cpu time spent up to now is     2268.9 secs

     total energy              =   -2938.10022488 Ry
     estimated scf accuracy    <       0.00001898 Ry

     iteration #  5     ecut=    60.00 Ry     beta= 0.30
     Davidson diagonalization with overlap
     ethr =  3.11E-09,  avg # of iterations =  5.0

     negative rho (up, down):  1.386E-04 0.000E+00

     total cpu time spent up to now is     2340.5 secs

     total energy              =   -2938.10022823 Ry
     estimated scf accuracy    <       0.00000253 Ry

     iteration #  6     ecut=    60.00 Ry     beta= 0.30
     Davidson diagonalization with overlap
     ethr =  4.15E-10,  avg # of iterations =  6.0

     negative rho (up, down):  1.385E-04 0.000E+00

     total cpu time spent up to now is     2423.5 secs

     total energy              =   -2938.10022892 Ry
     estimated scf accuracy    <       0.00000071 Ry

     iteration #  7     ecut=    60.00 Ry     beta= 0.30
     Davidson diagonalization with overlap
     ethr =  1.16E-10,  avg # of iterations =  6.0

     negative rho (up, down):  1.385E-04 0.000E+00

     total cpu time spent up to now is     2506.2 secs

     total energy              =   -2938.10022905 Ry
     estimated scf accuracy    <       0.00000016 Ry

     iteration #  8     ecut=    60.00 Ry     beta= 0.30
     Davidson diagonalization with overlap
     ethr =  2.59E-11,  avg # of iterations =  6.0

     negative rho (up, down):  1.385E-04 0.000E+00

     total cpu time spent up to now is     2588.8 secs

     total energy              =   -2938.10022909 Ry
     estimated scf accuracy    <       0.00000005 Ry

     iteration #  9     ecut=    60.00 Ry     beta= 0.30
     Davidson diagonalization with overlap
     ethr =  7.81E-12,  avg # of iterations =  6.0

     negative rho (up, down):  1.385E-04 0.000E+00

     total cpu time spent up to now is     2669.2 secs

     End of self-consistent calculation

          k = 0.0000 0.0000 0.0000 (154911 PWs)   bands (ev):

   -22.3496 -22.2856 -22.2203 -22.1766 -22.1181 -21.9596 -21.6614 -20.4475
   -20.4042 -20.3907 -20.3292 -20.3256 -20.2559 -20.1232 -19.9405 -19.9087
   -19.9019 -19.8628 -19.7834 -19.6277 -19.1865 -18.7847 -18.6253 -18.5938
   -18.5859 -18.5014 -18.1880 -18.0672 -18.0432 -18.0137 -18.0018 -17.9169
   -17.0189 -16.9572 -16.8183 -16.3577 -16.3005 -16.1510 -16.1432 -15.5432
   -15.4429 -15.3294 -15.2758 -15.2571 -15.1993 -14.8833 -14.7006 -14.6641
   -14.6593 -14.5903 -14.5784 -14.5035 -14.4367 -14.3935 -14.3678 -14.2300
   -14.1940 -14.1337 -13.9802 -13.3183 -12.9998 -12.9190 -12.8033 -12.7847
   -12.6456 -12.6145 -12.6065 -12.5281 -12.5271 -11.8099 -11.6129 -11.5979
   -11.5693 -11.5615 -11.5516 -11.5081 -11.4864 -11.4005 -11.1812 -11.1019
   -10.9743 -10.9080 -10.8710 -10.6956 -10.6567 -10.6546 -10.6470 -10.5772
   -10.5515 -10.4302 -10.2669 -10.1967 -10.0723  -9.8704  -9.7088  -9.6656
    -9.6615  -9.6170  -9.6082  -9.5439  -9.4912  -9.4131  -9.3243  -9.2787
    -8.8325  -8.8040  -8.7464  -8.6572  -8.6222  -8.6155  -8.5612  -8.5330
    -8.4805  -8.4705  -8.3888  -8.3432  -8.3247  -8.2959  -8.2508  -8.2482
    -8.1803  -7.9580  -7.9177  -7.7688  -7.7455  -7.6531  -7.6261  -7.5883
    -7.5514  -7.4777  -7.4601  -7.4450  -7.3756  -7.3689  -7.3399  -7.3015
    -7.2979  -7.2752  -7.2415  -7.2230  -7.2100  -7.1565  -7.1518  -7.1453
    -7.1164  -7.0720  -7.0331  -6.9996  -6.9574  -6.9554  -6.9282  -6.8818
    -6.8648  -6.8409  -6.7846  -6.7739  -6.7146  -6.6581  -6.6499  -6.6044
    -6.5529  -6.5349  -6.4869  -6.4766  -6.4449  -6.4314  -6.4238  -6.3932
    -6.3664  -6.3460  -6.3339  -6.3091  -6.2579  -6.2001  -6.1558  -6.1264
    -6.0935  -6.0737  -6.0563  -6.0452  -6.0072  -6.0031  -5.9864  -5.9698
    -5.9102  -5.8931  -5.8812  -5.8693  -5.7864  -5.7464  -5.6902  -5.6130
    -5.5848  -5.5736  -5.5726  -5.5306  -5.4964  -5.4713  -5.4286  -5.3915
    -5.3498  -5.3134  -5.3049  -5.2759  -5.2332  -5.2235  -5.2026  -5.1690
    -5.1608  -5.1522  -5.1281  -5.0508  -5.0088  -4.9860  -4.9639  -4.9137
    -4.9013  -4.8393  -4.8044  -4.7301  -4.7073  -4.6519  -4.6063  -4.5436
    -4.4918  -4.4409  -4.3817  -4.3647  -4.3242  -4.3145  -4.2795  -4.2671
    -4.2234  -4.2136  -4.1787  -4.1406  -4.1264  -4.1085  -4.0931  -4.0718
    -4.0625  -4.0142  -3.9824  -3.9588  -3.9129  -3.8760  -3.8571  -3.8246
    -3.7939  -3.7635  -3.7156  -3.6701  -3.6639  -3.5710  -3.5213  -3.4974
    -3.3528  -3.3202  -3.3012  -3.2526  -3.1823  -3.0398  -3.0315  -2.9870
    -2.9344  -2.8726  -2.8128  -2.7457  -2.6978  -2.6036  -2.5336  -2.5093
    -2.4425  -2.4079  -2.3620  -2.3497  -2.3274  -2.2847  -2.2078  -2.1583
    -2.1361  -2.0849  -2.0812  -2.0135  -2.0082  -1.8901  -1.8662  -1.8454
    -1.8060  -1.7171  -1.6943  -1.5638  -1.4942  -1.4350  -1.4297  -1.3842
    -1.3003  -1.2775  -1.2503  -1.2319  -1.2228  -1.1477  -0.5841  -0.5197
    -0.3604

          k = 0.0000 0.0000-1.5660 (154844 PWs)   bands (ev):

   -22.3079 -22.2684 -22.2679 -22.1623 -22.1281 -21.9586 -21.6494 -20.4771
   -20.4273 -20.4178 -20.3428 -20.3417 -20.2912 -20.1418 -19.9237 -19.8909
   -19.8872 -19.8420 -19.7668 -19.6080 -19.1802 -18.7487 -18.5881 -18.5564
   -18.5489 -18.4644 -18.2375 -18.0938 -18.0645 -18.0523 -18.0275 -17.9672
   -17.0055 -16.9440 -16.8053 -16.3580 -16.3027 -16.1564 -16.1483 -15.5396
   -15.4427 -15.3245 -15.2710 -15.2522 -15.1946 -14.8825 -14.6973 -14.6607
   -14.6555 -14.5874 -14.5603 -14.5017 -14.4818 -14.4152 -14.3931 -14.2665
   -14.1868 -14.1268 -13.9747 -13.4012 -12.9909 -12.9294 -12.8082 -12.7935
   -12.6526 -12.6230 -12.6137 -12.5343 -12.4782 -11.7279 -11.5967 -11.5346
   -11.5210 -11.5135 -11.4819 -11.4651 -11.4153 -11.3965 -11.1313 -11.0480
   -10.9151 -10.9073 -10.8459 -10.7297 -10.6889 -10.6852 -10.6132 -10.5852
   -10.5183 -10.3963 -10.2670 -10.2028 -10.0825  -9.8789  -9.7218  -9.6761
    -9.6421  -9.6271  -9.6194  -9.5895  -9.5567  -9.5429  -9.3724  -9.1527
    -9.0712  -8.8764  -8.7382  -8.7249  -8.6935  -8.6897  -8.6548  -8.6031
    -8.3866  -8.2927  -8.2817  -8.2498  -8.1987  -8.1018  -8.0570  -8.0139
    -7.9476  -7.8914  -7.8615  -7.8061  -7.7931  -7.7367  -7.7021  -7.6523
    -7.5629  -7.4920  -7.4487  -7.4154  -7.4084  -7.3668  -7.3565  -7.3372
    -7.3097  -7.2903  -7.2786  -7.2233  -7.2082  -7.1930  -7.1648  -7.1325
    -7.1188  -7.0994  -7.0830  -7.0259  -6.9868  -6.9624  -6.8693  -6.8279
    -6.8062  -6.7783  -6.7303  -6.7285  -6.6800  -6.6203  -6.5929  -6.5605
    -6.5458  -6.5192  -6.5072  -6.4545  -6.4389  -6.4282  -6.4156  -6.3969
    -6.3574  -6.3361  -6.3254  -6.3145  -6.2897  -6.2708  -6.2549  -6.2482
    -6.2421  -6.2251  -6.1910  -6.1635  -6.1409  -6.1133  -6.0944  -6.0911
    -6.0733  -6.0477  -6.0368  -5.9995  -5.9785  -5.9709  -5.9146  -5.8705
    -5.8067  -5.7573  -5.6452  -5.5964  -5.5444  -5.4906  -5.4752  -5.4357
    -5.4188  -5.3507  -5.3351  -5.3116  -5.2522  -5.2313  -5.2157  -5.1969
    -5.1777  -5.1677  -5.1359  -5.0325  -4.9999  -4.9863  -4.9745  -4.9058
    -4.7817  -4.7214  -4.6622  -4.6554  -4.6283  -4.5808  -4.5516  -4.5279
    -4.4496  -4.4145  -4.3966  -4.3587  -4.3364  -4.3173  -4.2724  -4.2617
    -4.2158  -4.2009  -4.1130  -4.1072  -4.0747  -4.0702  -4.0547  -4.0441
    -3.9999  -3.9935  -3.9101  -3.8583  -3.8426  -3.8211  -3.7491  -3.7461
    -3.6315  -3.5828  -3.5437  -3.5125  -3.4451  -3.4074  -3.3800  -3.3668
    -3.3166  -3.3105  -3.2812  -3.2276  -3.1233  -2.9511  -2.8964  -2.8699
    -2.8563  -2.8178  -2.7710  -2.7481  -2.7212  -2.6999  -2.6510  -2.5692
    -2.4195  -2.4090  -2.3704  -2.3434  -2.2921  -2.2824  -2.2149  -2.1780
    -2.1170  -2.0945  -2.0654  -2.0155  -2.0027  -1.9148  -1.8905  -1.8737
    -1.8426  -1.8122  -1.7747  -1.6350  -1.4805  -1.4351  -1.4193  -1.3906
    -1.3091  -1.2697  -1.2319  -1.2231  -1.2178  -1.1459  -0.5630  -0.5148
    -0.3608

     highest occupied level (ev):    -0.3604

!    total energy              =   -2938.10022907 Ry
     estimated scf accuracy    <       0.00000001 Ry

     The total energy is the sum of the following terms:
     one-electron contribution =   -6699.32880470 Ry
     hartree contribution      =    3546.82970553 Ry
     xc contribution           =    -693.98282103 Ry
     ewald contribution        =    1828.22341210 Ry
     one-center paw contrib.   =    -919.84172097 Ry

     convergence has been achieved in   9 iterations

     negative rho (up, down):  1.385E-04 0.000E+00

     Forces acting on atoms (cartesian axes, Ry/au):

     atom    1 type  1   force =    -0.02000288   -0.00211610    0.00873158
     atom    2 type  1   force =    -0.00097149    0.00150578   -0.00222372
     atom    3 type  1   force =    -0.00025812    0.00159671    0.00020422
     atom    4 type  1   force =     0.00048410   -0.00049861    0.00078342
     atom    5 type  1   force =     0.00021154   -0.00086248    0.00042750
     atom    6 type  1   force =     0.00085285   -0.00029169    0.00051600
     atom    7 type  2   force =    -0.00187812    0.00228066   -0.00403393
     atom    8 type  2   force =    -0.00194586    0.00064576   -0.00107654
     atom    9 type  2   force =    -0.00079994    0.00258521   -0.00285082
     atom   10 type  2   force =     0.00166275   -0.00183494    0.00162089
     atom   11 type  2   force =     0.00014254    0.00253743    0.00169665
     atom   12 type  2   force =    -0.00097167   -0.00144861    0.00094254
     atom   13 type  2   force =    -0.00024474   -0.00237434   -0.00015249
     atom   14 type  2   force =    -0.00138363   -0.00146494   -0.00078318
     atom   15 type  2   force =     0.00085102    0.00301596   -0.00154513
     atom   16 type  2   force =    -0.00018046   -0.00107381    0.00110878
     atom   17 type  2   force =     0.00090718    0.00090731    0.00093876
     atom   18 type  2   force =    -0.00051677    0.00024272    0.00140290
     atom   19 type  2   force =    -0.00541785   -0.00027867   -0.00411143
     atom   20 type  2   force =     0.00140932   -0.00069875    0.00170697
     atom   21 type  2   force =    -0.00195261   -0.00066370    0.00027563
     atom   22 type  2   force =    -0.00144445    0.00068479   -0.00197059
     atom   23 type  2   force =     0.00011161   -0.00102368   -0.00194647
     atom   24 type  2   force =     0.00090769    0.00043519   -0.00113683
     atom   25 type  3   force =     0.00193348   -0.00019071    0.00051218
     atom   26 type  3   force =    -0.00050295    0.00059067   -0.00050457
     atom   27 type  3   force =    -0.00027733   -0.00095127   -0.00030066
     atom   28 type  3   force =     0.00090603   -0.00007871    0.00043193
     atom   29 type  3   force =    -0.00035085    0.00062236    0.00054988
     atom   30 type  3   force =    -0.00024468   -0.00065402    0.00043836
     atom   31 type  3   force =     0.00035119    0.00037329    0.00007345
     atom   32 type  3   force =    -0.00012004    0.00002639   -0.00005241
     atom   33 type  3   force =     0.00003950   -0.00065185   -0.00010241
     atom   34 type  3   force =     0.00025869   -0.00012586    0.00006129
     atom   35 type  3   force =     0.00007526    0.00007712    0.00000307
     atom   36 type  3   force =    -0.00004748    0.00049135    0.00003072
     atom   37 type  3   force =    -0.00115985    0.00060646    0.00088070
     atom   38 type  3   force =     0.00013412   -0.00130309    0.00111927
     atom   39 type  3   force =     0.00188671    0.00477173    0.00109941
     atom   40 type  3   force =    -0.00111006   -0.00050931   -0.00111110
     atom   41 type  3   force =     0.00103084   -0.00091997   -0.00119778
     atom   42 type  3   force =     0.00025064    0.00135457   -0.00114011
     atom   43 type  3   force =    -0.00002387   -0.00003575   -0.00012479
     atom   44 type  3   force =     0.00007559   -0.00027553   -0.00008438
     atom   45 type  3   force =     0.00019933    0.00013109   -0.00007815
     atom   46 type  3   force =    -0.00004853   -0.00008241    0.00012463
     atom   47 type  3   force =    -0.00008902   -0.00007513    0.00016458
     atom   48 type  3   force =    -0.00094292   -0.00057666   -0.00011085
     atom   49 type  3   force =     0.00072746   -0.00106309   -0.00029543
     atom   50 type  3   force =     0.00025811    0.00112114   -0.00018856
     atom   51 type  3   force =    -0.00107476    0.00047621    0.00015193
     atom   52 type  3   force =     0.00000583   -0.00102554    0.00005569
     atom   53 type  3   force =     0.00001684   -0.00116684    0.00046527
     atom   54 type  3   force =     0.00065780    0.00044862    0.00039759
     atom   55 type  3   force =    -0.00086741    0.00042612    0.00041421
     atom   56 type  3   force =     0.00001101    0.00100061   -0.00044320
     atom   57 type  3   force =    -0.00095504   -0.00058836   -0.00046713
     atom   58 type  3   force =    -0.00057496    0.00040888    0.00119547
     atom   59 type  3   force =     0.00008894   -0.00086724    0.00135437
     atom   60 type  3   force =     0.00064938    0.00036345    0.00124307
     atom   61 type  3   force =    -0.00061310   -0.00039813   -0.00125697
     atom   62 type  3   force =     0.00059593   -0.00034169   -0.00120352
     atom   63 type  3   force =    -0.00028555    0.00109755   -0.00029488
     atom   64 type  3   force =    -0.00109038   -0.00133355   -0.00000762
     atom   65 type  3   force =     0.00124843   -0.00028057   -0.00032265
     atom   66 type  3   force =    -0.00028603   -0.00119272    0.00028691
     atom   67 type  3   force =     0.00103572    0.00026988    0.00028842
     atom   68 type  3   force =     0.00168845    0.00007467   -0.00059086
     atom   69 type  3   force =    -0.00101507    0.00130936   -0.00101009
     atom   70 type  3   force =    -0.00077515   -0.00148291   -0.00063063
     atom   71 type  3   force =     0.00165060   -0.00008429    0.00061019
     atom   72 type  3   force =    -0.00077666    0.00147876    0.00056057
     atom   73 type  3   force =     0.00024198    0.00055109   -0.00037941
     atom   74 type  3   force =     0.00090266   -0.00223241   -0.00273278
     atom   75 type  3   force =     0.00045894   -0.00052051   -0.00039482
     atom   76 type  3   force =     0.00016865   -0.00060975    0.00038421
     atom   77 type  3   force =     0.00045944    0.00046378    0.00037658
     atom   78 type  3   force =     0.00075458    0.00050865    0.00068621
     atom   79 type  3   force =    -0.00017381    0.00044555    0.00025608
     atom   80 type  3   force =     0.00001643   -0.00093987    0.00069032
     atom   81 type  3   force =     0.00080705   -0.00057074   -0.00070957
     atom   82 type  3   force =     0.00001917    0.00093398   -0.00068574
     atom   83 type  3   force =     0.00058391   -0.00024766    0.00029304
     atom   84 type  3   force =    -0.00048811    0.00055529   -0.00024662
     atom   85 type  3   force =    -0.00053758   -0.00031719    0.00034507
     atom   86 type  3   force =     0.00058275    0.00015428   -0.00030110
     atom   87 type  3   force =    -0.00060021    0.00033634   -0.00031770
     atom   88 type  3   force =     0.00067969    0.00009290   -0.00081667
     atom   89 type  3   force =    -0.00002490    0.00036177   -0.00038335
     atom   90 type  3   force =    -0.00029764   -0.00061292   -0.00081329
     atom   91 type  3   force =     0.00066761   -0.00012025    0.00085189
     atom   92 type  3   force =    -0.00025044    0.00059303    0.00082338
     atom   93 type  3   force =    -0.00090844   -0.00003734   -0.00032698
     atom   94 type  3   force =     0.00066178   -0.00088012   -0.00033456
     atom   95 type  3   force =     0.00050445    0.00088999   -0.00038049
     atom   96 type  3   force =    -0.00094298    0.00003797    0.00037747
     atom   97 type  3   force =     0.00032978   -0.00082532    0.00024063
     atom   98 type  3   force =    -0.00009384   -0.00040650   -0.00002944
     atom   99 type  3   force =     0.00018435   -0.00016788    0.00005710
     atom  100 type  3   force =    -0.00008030    0.00020054    0.00003079
     atom  101 type  3   force =    -0.00014278    0.00027388    0.00000013
     atom  102 type  3   force =    -0.00039405   -0.00037848    0.00009117
     atom  103 type  3   force =    -0.00007253   -0.00011543   -0.00027573
     atom  104 type  3   force =     0.00050742    0.00016585   -0.00023319
     atom  105 type  3   force =    -0.00025488   -0.00007676   -0.00028031
     atom  106 type  3   force =    -0.00041694    0.00016059    0.00018401
     atom  107 type  3   force =    -0.00004905   -0.00052734    0.00031159
     atom  108 type  3   force =     0.00004793   -0.00013310   -0.00032652
     atom  109 type  3   force =     0.00012557   -0.00035258   -0.00017674
     atom  110 type  3   force =    -0.00000135    0.00024223   -0.00026408
     atom  111 type  3   force =    -0.00009793    0.00016604    0.00030027
     atom  112 type  3   force =     0.00002620    0.00025881    0.00018677
     atom  113 type  4   force =    -0.00159261   -0.00163904   -0.00009725
     atom  114 type  4   force =     0.00090872    0.00021593    0.00054289
     atom  115 type  4   force =     0.00229458    0.00686380   -0.00224812
     atom  116 type  4   force =    -0.00028810    0.00134974   -0.00074590
     atom  117 type  4   force =    -0.00105072   -0.00040734   -0.00061678
     atom  118 type  4   force =    -0.00014231   -0.00011393   -0.00005839
     atom  119 type  4   force =    -0.00214853   -0.00584218    0.00108027
     atom  120 type  4   force =     0.00197935    0.00090848    0.00063042
     atom  121 type  4   force =     0.00137592    0.00508761   -0.00043961
     atom  122 type  4   force =    -0.00027103    0.00227317   -0.00060629
     atom  123 type  4   force =    -0.00134650   -0.00122030   -0.00017970
     atom  124 type  4   force =     0.00190906   -0.00088255    0.00016445
     atom  125 type  4   force =     0.00039970    0.00225909   -0.00226408
     atom  126 type  4   force =    -0.00077253    0.00014118   -0.00003774
     atom  127 type  4   force =     0.00299613    0.00100678   -0.00177786
     atom  128 type  4   force =     0.00039129   -0.00037853    0.00038108
     atom  129 type  4   force =    -0.00005504    0.00040689    0.00014079
     atom  130 type  4   force =     0.00006209   -0.00075961    0.00023052
     atom  131 type  4   force =    -0.00037333    0.00202150   -0.00038306
     atom  132 type  4   force =    -0.00120133   -0.00042383   -0.00066210
     atom  133 type  4   force =     0.00052863    0.00098551   -0.00057066
     atom  134 type  4   force =    -0.00010392   -0.00138106    0.00056528
     atom  135 type  4   force =     0.00107058    0.00085408    0.00041382
     atom  136 type  4   force =    -0.00160546    0.00007235    0.00072546
     atom  137 type  4   force =    -0.00019726   -0.00019318    0.00088416
     atom  138 type  4   force =     0.00033774   -0.00012179    0.00035898
     atom  139 type  4   force =     0.00090269    0.00324617    0.00094990
     atom  140 type  4   force =    -0.00049543    0.00031298   -0.00043096
     atom  141 type  4   force =    -0.00020034   -0.00041966   -0.00057233
     atom  142 type  4   force =     0.00057514   -0.00045679   -0.00091013
     atom  143 type  4   force =    -0.00052127   -0.00083270    0.00103782
     atom  144 type  4   force =     0.00045683    0.00012218    0.00092816
     atom  145 type  4   force =     0.00314367    0.00656314    0.00077089
     atom  146 type  4   force =    -0.00032428    0.00036895   -0.00080666
     atom  147 type  4   force =    -0.00000185   -0.00013311   -0.00088311
     atom  148 type  4   force =     0.00003338   -0.00012206   -0.00111645
     atom  149 type  4   force =    -0.00432550    0.00476595    0.00466743
     atom  150 type  4   force =    -0.00017881   -0.00152276   -0.00031320
     atom  151 type  4   force =     0.00475212    0.00210221    0.00114551
     atom  152 type  4   force =    -0.00093381    0.00069432    0.00037222
     atom  153 type  4   force =    -0.00051265   -0.00063284    0.00021697
     atom  154 type  4   force =     0.00017518    0.00094975   -0.00040042
     atom  155 type  4   force =     0.00040109    0.00079644    0.00368605
     atom  156 type  4   force =    -0.00033687    0.00044310    0.00374125
     atom  157 type  4   force =     0.00013469   -0.00075453    0.00370516
     atom  158 type  4   force =     0.00043269   -0.00063559   -0.00377868
     atom  159 type  4   force =     0.00077521    0.00081463   -0.00359976
     atom  160 type  4   force =    -0.00034415    0.00163094    0.00559195
     atom  161 type  4   force =    -0.00078050    0.00016694    0.00512818
     atom  162 type  4   force =     0.00103686   -0.00072893    0.00546461
     atom  163 type  4   force =    -0.00020014   -0.00133890   -0.00551295
     atom  164 type  4   force =     0.00132846    0.00069569   -0.00546921
     atom  165 type  4   force =    -0.00102696   -0.00041696   -0.00225540
     atom  166 type  4   force =     0.00037959   -0.00075335   -0.00354420
     atom  167 type  4   force =     0.00026186    0.00111738   -0.00227817
     atom  168 type  4   force =    -0.00101895    0.00050631    0.00223419
     atom  169 type  4   force =     0.00025161   -0.00107428    0.00229843
     atom  170 type  4   force =     0.00002845   -0.00077076   -0.00509558
     atom  171 type  4   force =     0.00085480   -0.00037434   -0.00481560
     atom  172 type  4   force =    -0.00069153    0.00041000   -0.00504916
     atom  173 type  4   force =     0.00007287    0.00087151    0.00511140
     atom  174 type  4   force =    -0.00058453   -0.00034722    0.00510259
     atom  175 type  4   force =    -0.00022355   -0.00000793    0.00222724
     atom  176 type  4   force =    -0.00150643   -0.00212271    0.00193496
     atom  177 type  4   force =     0.00001976    0.00012730    0.00221333
     atom  178 type  4   force =    -0.00018488    0.00004420   -0.00225603
     atom  179 type  4   force =     0.00003063   -0.00011110   -0.00227306
     atom  180 type  4   force =    -0.00000212   -0.00006281    0.00002777
     atom  181 type  4   force =    -0.00012843    0.00038908   -0.00027585
     atom  182 type  4   force =    -0.00021709   -0.00009283   -0.00001705
     atom  183 type  4   force =    -0.00003999    0.00027506   -0.00000930
     atom  184 type  4   force =     0.00008059    0.00017300    0.00026603
     atom  185 type  5   force =     0.00102283   -0.00066737   -0.00325213
     atom  186 type  5   force =     0.00049333    0.00091290   -0.00294804
     atom  187 type  5   force =    -0.00085215   -0.00042264   -0.00313020
     atom  188 type  5   force =     0.00098586    0.00063719    0.00326400
     atom  189 type  5   force =    -0.00106028    0.00018738    0.00306430
     atom  190 type  5   force =    -0.00001999   -0.00012711   -0.00011275
     atom  191 type  5   force =     0.00012943   -0.00001741   -0.00015091
     atom  192 type  5   force =    -0.00002622    0.00007594   -0.00026048
     atom  193 type  5   force =    -0.00034946    0.00008063    0.00000361
     atom  194 type  5   force =    -0.00015408    0.00034001   -0.00008557
     atom  195 type  2   force =     0.01234438   -0.01237023    0.00439798
     atom  196 type  2   force =    -0.00408689   -0.01184351   -0.00261457
     atom  197 type  3   force =    -0.00257951   -0.00062619   -0.00488577
     atom  198 type  3   force =     0.00243474    0.00070771   -0.00089270
     atom  199 type  3   force =     0.00549059    0.00158233   -0.00261448
     atom  200 type  3   force =     0.00059080   -0.00008075    0.00019139
     atom  201 type  3   force =     0.00051370    0.00122296    0.00178157
     atom  202 type  3   force =     0.00255872   -0.00132547   -0.00098293
     atom  203 type  3   force =     0.00118715   -0.00079872    0.00095243
     atom  204 type  3   force =     0.00004566    0.00028684    0.00021948
     atom  205 type  3   force =     0.00052813    0.00064695    0.00123963
     atom  206 type  3   force =     0.00102038   -0.00108106    0.00150069
     atom  207 type  3   force =    -0.00159468    0.00425285    0.00034816
     atom  208 type  3   force =     0.00066374    0.00338147    0.00087680
     atom  209 type  3   force =    -0.00098045   -0.00100072   -0.00103404
     atom  210 type  3   force =     0.00141362   -0.00186974    0.00034453
     atom  211 type  4   force =    -0.00262970    0.00167864    0.00346295
     atom  212 type  4   force =    -0.00576713    0.00678613   -0.00535539
     atom  213 type  4   force =     0.00546299    0.00224363   -0.00504483
     atom  214 type  4   force =     0.00628244   -0.00309814    0.00268872
     atom  215 type  4   force =     0.00161193    0.00468769    0.00362260
     atom  216 type  4   force =     0.00232955   -0.00773533   -0.00363471
     atom  217 type  4   force =    -0.00088130   -0.00701616    0.00984357
     atom  218 type  5   force =    -0.00730886   -0.00018501    0.00000793
     atom  219 type  5   force =     0.00170870   -0.00479622    0.00100307

     Total force =     0.053617     Total SCF correction =     0.000219
     Energy error            =      4.0E-03 Ry
     Gradient error          =      2.0E-02 Ry/Bohr

     number of scf cycles    =   3
     number of bfgs steps    =   2

     energy             old  =   -2938.0961922464 Ry
     energy             new  =   -2938.1002290736 Ry

     CASE: energy            _new < energy            _old

     new trust radius        =       0.0444055728 bohr
     new conv_thr            =       0.0000000200 Ry


ATOMIC_POSITIONS (angstrom)
Mg              10.1769131280        5.4283851785        5.8573723160
Mg              12.1310136212        6.1513211567        1.1508384191
Mg              10.5556553634        7.4451072510        3.4942889854
Mg              -0.7430289834       13.5806771696        5.8543857203
Mg              -0.4109959450       11.5721129529        1.1800624396
Mg               1.1636689939       12.8637039056        3.5165887432
O               11.4361385530        4.4556117946        0.1776859889
O               12.3723980623        7.6778616723        2.5183385744
O                9.1207015896        6.8835679874        4.8447071347
O                0.4641103157       14.5537326146        4.4915595692
O               -1.8595443978       12.1404353896        6.8284170130
O                1.3914316505       11.3342173331        2.1561631075
O               10.8176702699        5.4793085875        2.6578225102
O               11.7994485489        6.6242499878        4.9906833217
O               10.3259187218        6.9117425543        0.3211226849
O               -0.1610678483       13.5317154278        2.0179053023
O               -0.6620544775       12.1100326862        4.3537027682
O                0.8202631316       12.3862541982        6.6900574352
O               10.2203754969        4.0548693764        4.2816115364
O               13.3241792691        6.8341388607        6.6180080498
O                9.3735120552        8.1169295328        1.9445917571
O               -0.7437009208       14.9559879286        0.3913441714
O               -1.6041375869       10.8926722211        2.7279466684
O                2.3444609484       12.1782707505        5.0650126694
H               10.5710908082        1.7575437549        3.7775640835
H               15.1464798815        8.2726641664        6.1123721573
H                7.2156928450        8.9799517283        1.4396557218
H               -0.4085073774       17.2536570524        0.8967651993
H               -3.7609003570       10.0312969462        3.2334198534
H                4.1703227804       10.7393056676        5.5698607792
H                0.8062579124       18.9793397262        0.0622227977
H               -5.8624315420       10.2207742082        2.3983453474
H                5.0563497067        8.8238928926        4.7346233248
H               11.7831457662        0.0334052723        4.6108991927
H               16.0334558501       10.1873156360        6.9472033088
H                5.1153685316        8.7924159325        2.2748192291
H               11.8822658009        2.2059189788        6.0388938416
H               14.1016669554        9.1878658461        1.3654898735
H                6.9472471749        7.6291705280        3.7082086422
H                0.9062672238       16.8063921823        5.6437333455
H               -4.0308692158       11.3935339658        0.9708780152
H                3.1250898156        9.8247973065        3.3075901816
H                2.7235503432       15.5478145166        1.4785286742
H               -3.8493643915       13.5969563456        3.8149368986
H                1.1263837396        8.8803042101        6.1513604968
H               13.7003784480        3.4646344541        3.1942854245
H               12.1030754475       10.1326665196        5.5307455045
H                3.6229467159       14.1513384332        5.8994628567
H               -3.0908612985       15.0729983652        1.2264036498
H               -0.5319123836        8.7991027532        3.5629030779
H               14.5994776465        4.8607600769        5.7827194241
H               10.4438331381       10.2131704889        1.1097104960
H                6.0018675765       13.6430725153        5.6220470754
H               -3.8389609927       17.3895730834        0.9492376765
H               -2.1626745522        6.9928170695        3.2855784894
H               16.9788392148        5.3694658692        6.0600545155
H                8.8142470138       12.0193009333        1.3872137242
H                5.4033705173       14.9012712260        4.5285201571
H               -4.6295877317       16.2410617157        6.8650554191
H               -0.7736568012        6.8824435799        2.1920819171
H               16.3801618742        4.1111761668        0.1442854352
H               10.2030462334       12.1300303528        2.4807426238
H                5.0330121902       16.4274011776        1.3762744565
H               -5.7663955659       15.1577098747        3.7132524294
H                0.7333781246        6.4401487408        6.0490240039
H               16.0099336537        2.5850792780        3.2965352648
H               11.7101012460       12.5724758149        5.6329845920
H                5.5886834864       15.1435409316        2.4558292613
H               -4.9322255076       16.2802528782        4.7923627439
H               -0.6565342021        6.6007604557        0.1193785514
H               16.5654659257        3.8688516889        2.2170070849
H               10.3203741429       12.4116741993        4.5534177272
H                7.2650890906       14.3980322672        0.8073187293
H               -5.1242616886       18.0953518596        3.1369374540
H               -2.1402770813        5.5215529550        5.4800742939
H               18.2418897183        4.6144881415        3.8655050563
H                8.8366126639       13.4906857522        6.2019553196
H                7.4967833387       16.1186345252        1.1021252812
H               -6.7299363424       17.4463242190        3.4380897887
H               -0.7661902491        4.4605540570        5.7749847849
H               18.4736639370        2.8937095998        3.5707017718
H               10.2106729279       14.5520675861        5.9070358936
H                6.2509593043       16.6746489766        6.0196507956
H               -6.5895845491       16.0893515409        1.3464005182
H                0.3384567269        5.2618236828        3.6833441457
H               17.2278692216        2.3378565343        5.6624272647
H               11.3152086216       13.7507516737        0.9895476523
H                7.5688154422       15.5580512916        5.6403791494
H               -6.2814484139       17.7896980387        0.9672731062
H               -1.2876961070        4.6785105178        3.3038875349
H               18.5456942695        3.4542909436        6.0417999565
H                9.6891992425       14.3340033917        1.3690145921
H                2.3394875489       13.9788627011        0.7870729125
H               -2.2989381153       14.0488932046        3.1235632886
H               -0.0401447039        9.9969112215        5.4599591287
H               13.3163572123        5.0335674109        3.8858609586
H               10.9358997323        9.0154785223        6.2221929680
H                4.8352266258       13.4142774549        0.8695111646
H               -3.0574166355       16.4931968135        3.2059339374
H               -1.7775047322        8.1176493723        5.5424358608
H               15.8121025845        5.5981953040        3.8032607634
H                9.1997377032       10.8943552790        6.1399325854
H                3.6967356692       13.1538582440        2.8549461342
H               -2.2622203048       15.6372718861        5.1914746263
H               -1.4340192995        9.2333419555        0.5184821562
H               14.6733607097        5.8586347045        1.8177820236
H                9.5430634460        9.7769426423        4.1543801543
H                3.2892807195       14.6040667126        3.4784579451
H               -3.3149465163       14.5575973063        5.8151720749
H                0.0265098806        8.8626670703        1.1421012807
H               14.2656672200        4.4083856025        1.1942911249
H               11.0031847382       10.1509061878        3.5304960605
C               11.3105266952        3.2792310103        0.7983947517
C               13.4565019649        8.1616708977        3.1382545703
C                8.1646907026        7.5881817108        5.4698038968
C                0.3402475177       15.7344911862        3.8712521501
C               -2.8200754664       11.4399079417        6.2075825070
C                2.4791397716       10.8506580753        1.5350265360
C               10.9463906660        3.1295449193        2.1829099230
C               13.7709172323        7.9184720573        4.5215251384
C                8.2185569840        7.9790144632        6.8520126386
C               -0.0281045402       15.8848159594        2.4879843214
C               -2.7657829555       11.0457119315        4.8245668680
C                2.7937500081       11.0942520450        0.1519857436
C               10.8707777290        1.8310477989        2.7387712548
C               14.9317375394        8.5003046262        5.0756864748
C                7.1305267899        8.6875334756        0.4000931093
C               -0.1049017291       17.1815727039        1.9338045681
C               -3.8507422956       10.3310222053        4.2700640936
C                3.9559501287       10.5118679000        6.6065171584
C               11.1620172954        0.6712249729        2.0160553657
C               15.7909064667        9.3323904424        4.3516610506
C                5.9789640525        9.0090363129        6.6874835005
C                0.1860367850       18.3418956395        2.6575556574
C               -5.0011218102       10.0031022366        4.9936528701
C                4.8156934525        9.6781602604        0.3198276384
C               11.5182801284        0.8376312194        0.6521957482
C               15.4704743006        9.5564633655        2.9892746412
C                5.9451391358        8.6244244122        5.3237018007
C                0.5404303151       18.1761198470        4.0203862760
C               -5.0347186504       10.3928380062        6.3562008165
C                4.4930264611        9.4548641819        1.6824488994
C               11.5811840898        2.0916467040        0.0658297180
C               14.3520755058        8.9826861242        2.4015667983
C                7.0057318500        7.9552129305        4.7383889304
C                0.6026079855       16.9205283662        4.6079205727
C               -3.9783525816       11.0748366916        6.9437803778
C                3.3740890913       10.0297415931        2.2709650115
C               10.6493117826        4.2786632989        3.0826611734
C               12.9226726296        7.0851890780        5.4267581924
C                9.3546154473        7.6468478038        0.7514967126
C               -0.3250968649       14.7358520288        1.5822191590
C               -1.6222710815       11.3626368868        3.9189699317
C                1.9476065251       11.9259436236        6.2559658985
C                4.4477335628       14.4481174002        0.7466141388
C               -3.7595476232       15.6397799105        3.0826142293
C               -0.6881118616        7.9365670735        5.4194217161
C               15.4245154141        4.5641561583        3.9263688859
C               10.2884903390       11.0757804159        6.2625732537
C                5.5907411476       14.6699157985        5.5804383754
C               -4.5223813406       16.5181217642        0.9079529764
C               -1.0675488472        6.8360481690        3.2441252700
C               16.5672299280        4.3423792904        6.1015149617
C                9.9093731033       12.1761865878        1.4287048687
C                6.6170566994       15.6527959025        6.1709491130
C               -5.8873783426       16.9158551099        1.4975757635
C               -0.7298228864        5.4554749690        3.8345312307
C               17.5938805226        3.3596350743        5.5111149774
C               10.2470237299       13.5568527458        0.8383357059
C                5.4545184102       15.4152662514        1.4038276010
C               -5.1005903242       16.0275136019        3.7398511556
C               -0.3539286524        6.5810262464        6.0766687971
C               16.4313610198        3.5971621295        3.2690271730
C               10.6227208830       12.4312288026        5.6054253169
C                6.8096093628       15.3866145802        0.6681945690
C               -5.7539433150       17.2114373879        3.0024472242
C               -1.0563332757        5.4218478795        5.3411270757
C               17.7864080860        3.6256931609        4.0046174025
C                9.9205977744       13.5906280458        6.3409697375
C                3.0593094711       14.5104379428        1.4076264580
C               -3.1190084456       14.4062904667        3.7442541487
C                0.0601494278        9.1077979796        6.0804760000
C               14.0360461326        4.5020522768        3.2651761197
C               11.0367570811        9.9044897209        5.6015478486
N                4.3072713761       14.7806383230        6.3188048585
N               -3.9764232538       15.3550323565        1.6459988457
N               -0.3308671853        7.8916151098        3.9824502638
N               15.2845627168        4.2322644494        5.3633018211
N               10.6466775435       11.1207542559        0.6906991217
N                3.0093320840       13.9094625796        2.7851443358
N               -2.5751964231       14.6651998805        5.1206681108
N               -0.4360845972        9.4510598390        0.4483860500
N               13.9861560792        5.1028069582        1.8879176185
N               10.5416941989        9.5622676076        4.2243673766
O                8.2293064626        4.8281536558        6.7081199964
O                6.2123530204        5.1464527115        5.6941697670
H                6.4715783669        5.7983699153        3.0034494826
H                6.8508380800        4.0501733903        4.6736130902
H                8.3259330292        3.6411557696        4.0070887353
H                7.7732886785        1.3352373407        3.6978419846
H                7.6393551946        1.8545666477        5.3840271670
H                5.4067530281        5.7241931876        0.8673994868
H                4.8166180049        3.4538569627        1.6158547144
H                4.7065051772        3.9261787067        3.3078705048
H                3.9973891577        1.5355734650        3.0291466050
H                5.5200748549        1.1632572068        2.2449194940
H                5.1705005822        2.0483546111        5.1734533455
H                5.6468950946        0.4517199195        4.6355174896
H                8.0141779013        5.4240611332        2.2496960407
H                7.2825650143        3.0807561721        1.8603280102
C                6.7295867418        3.6886612595        2.5832490187
C                7.1846439087        1.9360506524        4.3961236791
C                5.7078051011        1.5128858650        4.3864762249
C                5.2415343579        3.2760840616        2.6061766866
C                5.0585608144        1.7967606865        3.0113183919
C                6.9490734996        5.1904400637        2.2338989532
C                6.9823701874        5.1438459036        6.7180262732
N                7.3230151008        3.3902949110        3.9637776313
N                6.3970530723        5.5239799050        0.9237813638



     Writing config-only to output data dir ./tmp/b_MOF_CO2_bound.save/ :
     XML data file
     NEW-OLD atomic charge density approx. for the potential

     Check: negative core charge=   -0.000001

     negative rho (up, down):  1.387E-04 0.000E+00

     total cpu time spent up to now is     2704.4 secs

     per-process dynamical memory:   356.2 Mb

     Self-consistent Calculation

     iteration #  1     ecut=    60.00 Ry     beta= 0.30
     Davidson diagonalization with overlap
     ethr =  1.00E-06,  avg # of iterations =  5.0

     negative rho (up, down):  1.388E-04 0.000E+00

     total cpu time spent up to now is     2801.9 secs

     total energy              =   -2938.10322490 Ry
     estimated scf accuracy    <       0.00063834 Ry

     iteration #  2     ecut=    60.00 Ry     beta= 0.30
     Davidson diagonalization with overlap
     ethr =  1.05E-07,  avg # of iterations =  2.0

     negative rho (up, down):  1.389E-04 0.000E+00

     total cpu time spent up to now is     2867.6 secs

     total energy              =   -2938.10323616 Ry
     estimated scf accuracy    <       0.00020096 Ry

     iteration #  3     ecut=    60.00 Ry     beta= 0.30
     Davidson diagonalization with overlap
     ethr =  3.29E-08,  avg # of iterations =  5.0

     negative rho (up, down):  1.388E-04 0.000E+00

     total cpu time spent up to now is     2946.1 secs

     total energy              =   -2938.10327429 Ry
     estimated scf accuracy    <       0.00003529 Ry

     iteration #  4     ecut=    60.00 Ry     beta= 0.30
     Davidson diagonalization with overlap
     ethr =  5.79E-09,  avg # of iterations =  5.0

     negative rho (up, down):  1.388E-04 0.000E+00

     total cpu time spent up to now is     3024.8 secs

     total energy              =   -2938.10328361 Ry
     estimated scf accuracy    <       0.00001108 Ry

     iteration #  5     ecut=    60.00 Ry     beta= 0.30
     Davidson diagonalization with overlap
     ethr =  1.82E-09,  avg # of iterations =  6.5

     negative rho (up, down):  1.388E-04 0.000E+00

     total cpu time spent up to now is     3099.2 secs

     total energy              =   -2938.10328467 Ry
     estimated scf accuracy    <       0.00000216 Ry

     iteration #  6     ecut=    60.00 Ry     beta= 0.30
     Davidson diagonalization with overlap
     ethr =  3.54E-10,  avg # of iterations =  5.5

     negative rho (up, down):  1.387E-04 0.000E+00

     total cpu time spent up to now is     3185.2 secs

     total energy              =   -2938.10328535 Ry
     estimated scf accuracy    <       0.00000097 Ry

     iteration #  7     ecut=    60.00 Ry     beta= 0.30
     Davidson diagonalization with overlap
     ethr =  1.59E-10,  avg # of iterations =  5.0

     negative rho (up, down):  1.387E-04 0.000E+00

     total cpu time spent up to now is     3258.9 secs

     total energy              =   -2938.10328551 Ry
     estimated scf accuracy    <       0.00000007 Ry

     iteration #  8     ecut=    60.00 Ry     beta= 0.30
     Davidson diagonalization with overlap
     ethr =  1.11E-11,  avg # of iterations =  7.0

     negative rho (up, down):  1.387E-04 0.000E+00

     total cpu time spent up to now is     3364.5 secs

     End of self-consistent calculation

          k = 0.0000 0.0000 0.0000 (154911 PWs)   bands (ev):

   -22.3398 -22.2835 -22.2073 -22.1801 -22.0899 -21.9911 -21.6883 -20.4276
   -20.3881 -20.3637 -20.3406 -20.3049 -20.2848 -20.1542 -19.9267 -19.9052
   -19.8981 -19.8711 -19.7497 -19.6633 -19.1999 -18.7827 -18.6316 -18.6008
   -18.5717 -18.5130 -18.1823 -18.1697 -18.0488 -18.0203 -17.9853 -17.9280
   -17.0103 -16.9519 -16.8404 -16.3522 -16.2967 -16.1875 -16.1771 -15.5499
   -15.4852 -15.3321 -15.2838 -15.2533 -15.2086 -14.8794 -14.7031 -14.6635
   -14.6505 -14.5970 -14.5701 -14.4994 -14.4273 -14.4125 -14.3615 -14.2514
   -14.1819 -14.1247 -14.0027 -13.3640 -12.9899 -12.9118 -12.8069 -12.7987
   -12.6498 -12.6197 -12.5919 -12.5549 -12.5367 -11.8054 -11.6277 -11.6093
   -11.5679 -11.5621 -11.5400 -11.5003 -11.4901 -11.4184 -11.1672 -11.0920
   -10.9954 -10.9340 -10.8677 -10.6975 -10.6592 -10.6460 -10.6354 -10.5839
   -10.5432 -10.4469 -10.2554 -10.1895 -10.0930  -9.8673  -9.7425  -9.6671
    -9.6646  -9.6201  -9.5977  -9.5495  -9.5458  -9.4060  -9.3309  -9.2780
    -8.8255  -8.7969  -8.7523  -8.6608  -8.6262  -8.6011  -8.5869  -8.5439
    -8.4812  -8.4609  -8.3815  -8.3686  -8.3421  -8.3021  -8.2569  -8.2389
    -8.1893  -7.9496  -7.9134  -7.7971  -7.7392  -7.6463  -7.6210  -7.5811
    -7.5463  -7.4750  -7.4694  -7.4402  -7.3776  -7.3744  -7.3458  -7.2993
    -7.2966  -7.2897  -7.2597  -7.2358  -7.2189  -7.1582  -7.1492  -7.1459
    -7.1139  -7.0698  -7.0301  -7.0010  -6.9644  -6.9573  -6.9302  -6.8814
    -6.8716  -6.8405  -6.7929  -6.7788  -6.7382  -6.6716  -6.6528  -6.6003
    -6.5550  -6.5279  -6.4820  -6.4743  -6.4502  -6.4281  -6.4244  -6.3951
    -6.3810  -6.3491  -6.3422  -6.3156  -6.2553  -6.1992  -6.1609  -6.1232
    -6.0928  -6.0697  -6.0590  -6.0496  -6.0098  -5.9983  -5.9908  -5.9653
    -5.9050  -5.8987  -5.8847  -5.8699  -5.7803  -5.7708  -5.7107  -5.6157
    -5.6025  -5.5733  -5.5569  -5.5308  -5.4994  -5.4694  -5.4237  -5.3882
    -5.3420  -5.3049  -5.3003  -5.2684  -5.2269  -5.2209  -5.1960  -5.1752
    -5.1635  -5.1603  -5.1256  -5.0499  -5.0124  -4.9748  -4.9698  -4.9207
    -4.8865  -4.8387  -4.8281  -4.7243  -4.7163  -4.6448  -4.6029  -4.5391
    -4.5081  -4.4642  -4.3788  -4.3586  -4.3203  -4.3176  -4.2714  -4.2645
    -4.2245  -4.2144  -4.1687  -4.1396  -4.1312  -4.1055  -4.0918  -4.0752
    -4.0591  -4.0190  -3.9885  -3.9602  -3.9128  -3.8740  -3.8511  -3.8246
    -3.7819  -3.7599  -3.7078  -3.6703  -3.6622  -3.5633  -3.5196  -3.4992
    -3.3456  -3.3152  -3.2920  -3.2464  -3.1914  -3.0355  -3.0267  -2.9895
    -2.9290  -2.8599  -2.8202  -2.7410  -2.7012  -2.6016  -2.5327  -2.4966
    -2.4379  -2.4119  -2.3717  -2.3542  -2.3433  -2.2823  -2.2229  -2.1752
    -2.1309  -2.0818  -2.0737  -2.0214  -2.0009  -1.9086  -1.8822  -1.8528
    -1.7846  -1.7143  -1.6961  -1.5735  -1.4830  -1.4273  -1.4232  -1.4151
    -1.3307  -1.2862  -1.2691  -1.2348  -1.2080  -1.1531  -0.5722  -0.5129
    -0.3820

          k = 0.0000 0.0000-1.5660 (154844 PWs)   bands (ev):

   -22.2932 -22.2675 -22.2648 -22.1608 -22.1001 -21.9888 -21.6757 -20.4582
   -20.4151 -20.3939 -20.3486 -20.3267 -20.3171 -20.1722 -19.9095 -19.8891
   -19.8809 -19.8496 -19.7332 -19.6434 -19.1934 -18.7470 -18.5946 -18.5636
   -18.5349 -18.4761 -18.2314 -18.1278 -18.0993 -18.0709 -18.0355 -17.9782
   -16.9969 -16.9387 -16.8274 -16.3523 -16.2988 -16.1967 -16.1786 -15.5471
   -15.4852 -15.3273 -15.2790 -15.2486 -15.2039 -14.8784 -14.6995 -14.6593
   -14.6469 -14.5942 -14.5509 -14.4977 -14.4727 -14.4169 -14.4031 -14.2891
   -14.1752 -14.1181 -13.9970 -13.4485 -12.9796 -12.9226 -12.8162 -12.8036
   -12.6567 -12.6279 -12.5986 -12.5428 -12.5048 -11.7244 -11.5852 -11.5508
   -11.5326 -11.5133 -11.4847 -11.4550 -11.4294 -11.4047 -11.1176 -11.0394
   -10.9349 -10.9049 -10.8720 -10.7315 -10.6925 -10.6728 -10.6200 -10.5741
   -10.5114 -10.4112 -10.2566 -10.1961 -10.1030  -9.8751  -9.7992  -9.6750
    -9.6519  -9.6305  -9.6098  -9.5891  -9.5610  -9.5427  -9.3803  -9.1414
    -9.0701  -8.8724  -8.7424  -8.7278  -8.7034  -8.6964  -8.6737  -8.6134
    -8.3767  -8.3193  -8.2725  -8.2493  -8.2090  -8.1023  -8.0636  -8.0058
    -7.9573  -7.8812  -7.8544  -7.8063  -7.7868  -7.7290  -7.7217  -7.6634
    -7.5554  -7.4916  -7.4431  -7.4151  -7.4078  -7.3702  -7.3534  -7.3398
    -7.3123  -7.2994  -7.2870  -7.2178  -7.2111  -7.1907  -7.1760  -7.1437
    -7.1227  -7.0937  -7.0826  -7.0312  -6.9990  -6.9669  -6.8802  -6.8316
    -6.8030  -6.7776  -6.7574  -6.7358  -6.6863  -6.6178  -6.5938  -6.5642
    -6.5408  -6.5101  -6.5044  -6.4487  -6.4436  -6.4292  -6.4281  -6.3890
    -6.3570  -6.3338  -6.3216  -6.3177  -6.2906  -6.2707  -6.2544  -6.2513
    -6.2364  -6.2271  -6.1974  -6.1698  -6.1439  -6.1020  -6.0929  -6.0879
    -6.0750  -6.0398  -6.0307  -6.0072  -5.9830  -5.9727  -5.9184  -5.8883
    -5.8038  -5.7696  -5.6700  -5.6058  -5.5410  -5.4885  -5.4829  -5.4353
    -5.4223  -5.3454  -5.3344  -5.3063  -5.2500  -5.2390  -5.2138  -5.1963
    -5.1812  -5.1706  -5.1233  -5.0320  -5.0050  -4.9915  -4.9627  -4.9121
    -4.8082  -4.7055  -4.6520  -4.6444  -4.6250  -4.5744  -4.5491  -4.5431
    -4.4664  -4.4274  -4.4021  -4.3535  -4.3350  -4.3281  -4.2727  -4.2528
    -4.2211  -4.1972  -4.1262  -4.1078  -4.0748  -4.0577  -4.0559  -4.0390
    -4.0034  -3.9852  -3.9124  -3.8642  -3.8534  -3.8222  -3.7559  -3.7430
    -3.6207  -3.5726  -3.5345  -3.5041  -3.4529  -3.4060  -3.3640  -3.3602
    -3.3145  -3.3044  -3.2788  -3.2199  -3.1196  -2.9481  -2.8918  -2.8729
    -2.8549  -2.8071  -2.7577  -2.7535  -2.7204  -2.7025  -2.6391  -2.5718
    -2.4156  -2.4070  -2.3671  -2.3493  -2.3236  -2.2741  -2.2266  -2.1739
    -2.1138  -2.1057  -2.0681  -2.0291  -1.9958  -1.9175  -1.8993  -1.8787
    -1.8314  -1.8212  -1.7550  -1.6676  -1.4797  -1.4316  -1.4190  -1.4055
    -1.3351  -1.2671  -1.2552  -1.2311  -1.2064  -1.1512  -0.5512  -0.5066
    -0.3847

     highest occupied level (ev):    -0.3820

!    total energy              =   -2938.10328560 Ry
     estimated scf accuracy    <       0.00000002 Ry

     The total energy is the sum of the following terms:
     one-electron contribution =   -6700.32074861 Ry
     hartree contribution      =    3547.30853422 Ry
     xc contribution           =    -694.03586944 Ry
     ewald contribution        =    1828.78869843 Ry
     one-center paw contrib.   =    -919.84390019 Ry

     convergence has been achieved in   8 iterations

     negative rho (up, down):  1.387E-04 0.000E+00

     Forces acting on atoms (cartesian axes, Ry/au):

     atom    1 type  1   force =    -0.01591359   -0.00321981    0.00643259
     atom    2 type  1   force =    -0.00023122    0.00041378   -0.00170739
     atom    3 type  1   force =     0.00198311   -0.00000940    0.00046019
     atom    4 type  1   force =     0.00015940   -0.00015925    0.00037448
     atom    5 type  1   force =    -0.00040610   -0.00020724    0.00027370
     atom    6 type  1   force =    -0.00016311    0.00038138    0.00033629
     atom    7 type  2   force =    -0.00305383    0.00237000   -0.00292642
     atom    8 type  2   force =    -0.00200944    0.00073819   -0.00036133
     atom    9 type  2   force =    -0.00053794    0.00187700   -0.00127369
     atom   10 type  2   force =     0.00147497   -0.00138327    0.00064586
     atom   11 type  2   force =     0.00001613    0.00164990    0.00085605
     atom   12 type  2   force =    -0.00061301   -0.00123452    0.00036083
     atom   13 type  2   force =    -0.00048750    0.00002791   -0.00046387
     atom   14 type  2   force =    -0.00169163   -0.00101344    0.00005449
     atom   15 type  2   force =     0.00036199    0.00164853   -0.00251034
     atom   16 type  2   force =    -0.00002162   -0.00046620    0.00056182
     atom   17 type  2   force =     0.00040614    0.00013026    0.00051746
     atom   18 type  2   force =    -0.00036067    0.00004708    0.00143093
     atom   19 type  2   force =    -0.00715731    0.00011210    0.00013275
     atom   20 type  2   force =     0.00110379   -0.00020017    0.00029803
     atom   21 type  2   force =    -0.00255299    0.00011632    0.00209994
     atom   22 type  2   force =    -0.00085713    0.00066132   -0.00051986
     atom   23 type  2   force =    -0.00008931   -0.00083830   -0.00055768
     atom   24 type  2   force =     0.00128524    0.00005612   -0.00061992
     atom   25 type  3   force =     0.00210662    0.00016759   -0.00036537
     atom   26 type  3   force =    -0.00050926    0.00059268   -0.00016754
     atom   27 type  3   force =    -0.00006227   -0.00093870   -0.00038257
     atom   28 type  3   force =     0.00092935   -0.00004957    0.00026215
     atom   29 type  3   force =    -0.00037315    0.00062720    0.00023330
     atom   30 type  3   force =    -0.00025288   -0.00062962    0.00020629
     atom   31 type  3   force =     0.00031201    0.00053726    0.00020014
     atom   32 type  3   force =    -0.00018065   -0.00010307   -0.00001856
     atom   33 type  3   force =     0.00042472   -0.00063695    0.00009544
     atom   34 type  3   force =     0.00011156   -0.00029640   -0.00000521
     atom   35 type  3   force =     0.00022700    0.00005314   -0.00004204
     atom   36 type  3   force =    -0.00013639    0.00053468    0.00001632
     atom   37 type  3   force =    -0.00091764    0.00060836    0.00068624
     atom   38 type  3   force =     0.00007728   -0.00123065    0.00102464
     atom   39 type  3   force =     0.00207196    0.00431738   -0.00044970
     atom   40 type  3   force =    -0.00102212   -0.00053945   -0.00099679
     atom   41 type  3   force =     0.00098418   -0.00075220   -0.00103373
     atom   42 type  3   force =     0.00020693    0.00122387   -0.00112059
     atom   43 type  3   force =    -0.00013270    0.00008060   -0.00007486
     atom   44 type  3   force =     0.00001283   -0.00031029   -0.00007860
     atom   45 type  3   force =     0.00023420    0.00010161   -0.00003676
     atom   46 type  3   force =    -0.00012330   -0.00012540    0.00010163
     atom   47 type  3   force =     0.00013786   -0.00013743    0.00013452
     atom   48 type  3   force =    -0.00082783   -0.00071344   -0.00023549
     atom   49 type  3   force =     0.00113341   -0.00089337   -0.00052905
     atom   50 type  3   force =    -0.00004673    0.00117248   -0.00031460
     atom   51 type  3   force =    -0.00096103    0.00064288    0.00028131
     atom   52 type  3   force =    -0.00017881   -0.00113523    0.00023320
     atom   53 type  3   force =     0.00005495   -0.00082356    0.00100757
     atom   54 type  3   force =     0.00047387    0.00055714    0.00091672
     atom   55 type  3   force =    -0.00074406    0.00026512    0.00095993
     atom   56 type  3   force =     0.00009004    0.00076120   -0.00097851
     atom   57 type  3   force =    -0.00073426   -0.00039524   -0.00101967
     atom   58 type  3   force =    -0.00040473    0.00035261    0.00160001
     atom   59 type  3   force =     0.00018351   -0.00065701    0.00169164
     atom   60 type  3   force =     0.00047898    0.00023919    0.00166783
     atom   61 type  3   force =    -0.00043574   -0.00031854   -0.00166296
     atom   62 type  3   force =     0.00046912   -0.00022678   -0.00158950
     atom   63 type  3   force =    -0.00012013    0.00077340   -0.00070100
     atom   64 type  3   force =    -0.00080364   -0.00147302   -0.00033995
     atom   65 type  3   force =     0.00084038   -0.00025419   -0.00072540
     atom   66 type  3   force =    -0.00011334   -0.00083467    0.00070218
     atom   67 type  3   force =     0.00071405    0.00025130    0.00068831
     atom   68 type  3   force =     0.00135806    0.00022003   -0.00125434
     atom   69 type  3   force =    -0.00099139    0.00104847   -0.00162694
     atom   70 type  3   force =    -0.00047977   -0.00127299   -0.00125874
     atom   71 type  3   force =     0.00132363   -0.00021669    0.00126224
     atom   72 type  3   force =    -0.00047841    0.00125052    0.00124729
     atom   73 type  3   force =     0.00041452    0.00029613   -0.00030096
     atom   74 type  3   force =     0.00119578   -0.00110132   -0.00214811
     atom   75 type  3   force =     0.00011344   -0.00053431   -0.00030136
     atom   76 type  3   force =     0.00035371   -0.00034272    0.00029974
     atom   77 type  3   force =     0.00010560    0.00049473    0.00028517
     atom   78 type  3   force =     0.00082996    0.00069133    0.00081106
     atom   79 type  3   force =    -0.00100580    0.00034592    0.00059237
     atom   80 type  3   force =     0.00013499   -0.00108309    0.00081246
     atom   81 type  3   force =     0.00088087   -0.00073484   -0.00083310
     atom   82 type  3   force =     0.00013752    0.00104290   -0.00079647
     atom   83 type  3   force =     0.00052054    0.00005539    0.00022961
     atom   84 type  3   force =    -0.00086663    0.00005274   -0.00077914
     atom   85 type  3   force =    -0.00020457   -0.00042301    0.00025650
     atom   86 type  3   force =     0.00051060   -0.00012310   -0.00024321
     atom   87 type  3   force =    -0.00025689    0.00043709   -0.00023168
     atom   88 type  3   force =     0.00047375   -0.00003042   -0.00085438
     atom   89 type  3   force =     0.00014274    0.00028144   -0.00043826
     atom   90 type  3   force =    -0.00025467   -0.00033441   -0.00080752
     atom   91 type  3   force =     0.00045996    0.00001260    0.00088437
     atom   92 type  3   force =    -0.00022559    0.00030098    0.00083314
     atom   93 type  3   force =    -0.00087298   -0.00005955   -0.00032358
     atom   94 type  3   force =     0.00064800   -0.00077969   -0.00030744
     atom   95 type  3   force =     0.00039027    0.00086135   -0.00039176
     atom   96 type  3   force =    -0.00096062    0.00010526    0.00041456
     atom   97 type  3   force =     0.00037317   -0.00078045    0.00016089
     atom   98 type  3   force =    -0.00010989   -0.00048139    0.00017954
     atom   99 type  3   force =     0.00031330   -0.00004130    0.00036973
     atom  100 type  3   force =    -0.00022287    0.00029722    0.00025647
     atom  101 type  3   force =    -0.00014038    0.00040583   -0.00021714
     atom  102 type  3   force =    -0.00037491   -0.00037923   -0.00013444
     atom  103 type  3   force =     0.00010884   -0.00015371   -0.00031958
     atom  104 type  3   force =     0.00036343    0.00008019   -0.00024485
     atom  105 type  3   force =    -0.00015115   -0.00005429   -0.00030382
     atom  106 type  3   force =    -0.00045222    0.00018871    0.00018005
     atom  107 type  3   force =    -0.00027839   -0.00013179    0.00034346
     atom  108 type  3   force =     0.00001654   -0.00008541   -0.00027840
     atom  109 type  3   force =     0.00009823   -0.00023574   -0.00019718
     atom  110 type  3   force =    -0.00000669    0.00011191   -0.00022422
     atom  111 type  3   force =    -0.00010862    0.00009214    0.00023580
     atom  112 type  3   force =     0.00004487    0.00038530    0.00016978
     atom  113 type  4   force =    -0.00094339   -0.00099567   -0.00077878
     atom  114 type  4   force =     0.00044714   -0.00008339   -0.00058646
     atom  115 type  4   force =     0.00139910    0.00663112   -0.00189067
     atom  116 type  4   force =    -0.00033979    0.00024714    0.00068262
     atom  117 type  4   force =    -0.00020905    0.00010703    0.00069637
     atom  118 type  4   force =     0.00049334   -0.00043647    0.00053478
     atom  119 type  4   force =    -0.00188312   -0.00241168    0.00101518
     atom  120 type  4   force =     0.00080015    0.00089304    0.00022482
     atom  121 type  4   force =     0.00162139    0.00311564   -0.00005334
     atom  122 type  4   force =     0.00039142    0.00165655   -0.00023124
     atom  123 type  4   force =    -0.00136383   -0.00047851   -0.00001519
     atom  124 type  4   force =     0.00109488   -0.00105112    0.00006123
     atom  125 type  4   force =    -0.00078847   -0.00011305    0.00045075
     atom  126 type  4   force =     0.00051716   -0.00003602    0.00050311
     atom  127 type  4   force =     0.00191924    0.00203581   -0.00078554
     atom  128 type  4   force =    -0.00049502    0.00064531   -0.00048636
     atom  129 type  4   force =    -0.00014906   -0.00066841   -0.00036284
     atom  130 type  4   force =     0.00042711   -0.00012937   -0.00021496
     atom  131 type  4   force =     0.00039315    0.00028240   -0.00083522
     atom  132 type  4   force =    -0.00055826    0.00035949   -0.00016557
     atom  133 type  4   force =    -0.00014192    0.00166653    0.00032412
     atom  134 type  4   force =     0.00023573    0.00014672    0.00017273
     atom  135 type  4   force =    -0.00004607    0.00062870   -0.00004130
     atom  136 type  4   force =    -0.00111425   -0.00057322    0.00055219
     atom  137 type  4   force =    -0.00042676   -0.00127441    0.00127429
     atom  138 type  4   force =     0.00071681    0.00002661    0.00025772
     atom  139 type  4   force =     0.00051666    0.00364598    0.00099668
     atom  140 type  4   force =    -0.00052138    0.00063336   -0.00030917
     atom  141 type  4   force =    -0.00019641   -0.00047664   -0.00029786
     atom  142 type  4   force =     0.00032605   -0.00013879   -0.00024855
     atom  143 type  4   force =    -0.00073451   -0.00027605    0.00005680
     atom  144 type  4   force =     0.00014840    0.00018442    0.00034960
     atom  145 type  4   force =     0.00200875    0.00555212   -0.00051498
     atom  146 type  4   force =    -0.00006090    0.00032645   -0.00033081
     atom  147 type  4   force =    -0.00030299   -0.00013468   -0.00043248
     atom  148 type  4   force =     0.00026976   -0.00049503   -0.00065852
     atom  149 type  4   force =    -0.00281769    0.00300658    0.00057103
     atom  150 type  4   force =    -0.00120864   -0.00255775    0.00048109
     atom  151 type  4   force =     0.00453664    0.00377115    0.00002160
     atom  152 type  4   force =    -0.00130852   -0.00091821   -0.00048541
     atom  153 type  4   force =     0.00103395    0.00014689   -0.00075720
     atom  154 type  4   force =    -0.00025039    0.00121137   -0.00065279
     atom  155 type  4   force =     0.00069166    0.00058663    0.00269181
     atom  156 type  4   force =    -0.00046081    0.00057431    0.00281838
     atom  157 type  4   force =    -0.00002668   -0.00091146    0.00272186
     atom  158 type  4   force =     0.00067354   -0.00046352   -0.00279079
     atom  159 type  4   force =     0.00030353    0.00095543   -0.00261794
     atom  160 type  4   force =    -0.00056341    0.00079043    0.00207485
     atom  161 type  4   force =    -0.00036597    0.00012769    0.00154636
     atom  162 type  4   force =     0.00064970   -0.00016985    0.00193465
     atom  163 type  4   force =    -0.00042205   -0.00061854   -0.00197859
     atom  164 type  4   force =     0.00077752    0.00013964   -0.00197932
     atom  165 type  4   force =    -0.00086959   -0.00043681   -0.00171470
     atom  166 type  4   force =     0.00031395   -0.00110852   -0.00275883
     atom  167 type  4   force =     0.00004174    0.00096434   -0.00175341
     atom  168 type  4   force =    -0.00086348    0.00051661    0.00172148
     atom  169 type  4   force =     0.00007548   -0.00093202    0.00172287
     atom  170 type  4   force =    -0.00010681   -0.00046303   -0.00198117
     atom  171 type  4   force =     0.00036108   -0.00082358   -0.00197097
     atom  172 type  4   force =    -0.00038736    0.00034365   -0.00198719
     atom  173 type  4   force =    -0.00009274    0.00052225    0.00199106
     atom  174 type  4   force =    -0.00028930   -0.00022589    0.00199671
     atom  175 type  4   force =    -0.00047164    0.00003531    0.00162982
     atom  176 type  4   force =    -0.00029065   -0.00135783    0.00123378
     atom  177 type  4   force =     0.00024801    0.00032499    0.00159371
     atom  178 type  4   force =    -0.00042063   -0.00002811   -0.00165488
     atom  179 type  4   force =     0.00022716   -0.00033112   -0.00162388
     atom  180 type  4   force =    -0.00001357    0.00010535    0.00030441
     atom  181 type  4   force =    -0.00018046    0.00026123   -0.00002148
     atom  182 type  4   force =     0.00000896   -0.00016944    0.00021357
     atom  183 type  4   force =    -0.00009398   -0.00001342   -0.00039129
     atom  184 type  4   force =     0.00016096    0.00029023   -0.00006106
     atom  185 type  5   force =     0.00120175   -0.00010401   -0.00241584
     atom  186 type  5   force =    -0.00057451    0.00060738   -0.00218363
     atom  187 type  5   force =    -0.00030434   -0.00095135   -0.00235450
     atom  188 type  5   force =     0.00112491   -0.00001171    0.00242183
     atom  189 type  5   force =    -0.00063462    0.00085971    0.00222656
     atom  190 type  5   force =    -0.00010297   -0.00023804    0.00000114
     atom  191 type  5   force =     0.00061854   -0.00024128    0.00019113
     atom  192 type  5   force =    -0.00012169    0.00028000   -0.00004787
     atom  193 type  5   force =    -0.00061802    0.00028801   -0.00017056
     atom  194 type  5   force =    -0.00006509    0.00005771   -0.00028472
     atom  195 type  2   force =     0.00699591   -0.01054623    0.00575266
     atom  196 type  2   force =    -0.00243911   -0.01140831   -0.00044424
     atom  197 type  3   force =    -0.00351424    0.00097293   -0.00314463
     atom  198 type  3   force =     0.00103018    0.00160297    0.00055228
     atom  199 type  3   force =     0.00225366    0.00065953   -0.00256487
     atom  200 type  3   force =     0.00110982   -0.00009286   -0.00159110
     atom  201 type  3   force =    -0.00015355    0.00196507    0.00170311
     atom  202 type  3   force =     0.00130386   -0.00121129   -0.00153149
     atom  203 type  3   force =     0.00091609   -0.00123774   -0.00082442
     atom  204 type  3   force =    -0.00031151    0.00104954    0.00193736
     atom  205 type  3   force =    -0.00085442    0.00097762    0.00185008
     atom  206 type  3   force =     0.00188667   -0.00174859    0.00029119
     atom  207 type  3   force =    -0.00159607    0.00510629    0.00097752
     atom  208 type  3   force =     0.00106992    0.00053261    0.00073772
     atom  209 type  3   force =     0.00204529   -0.00114531   -0.00146316
     atom  210 type  3   force =     0.00173523   -0.00268674    0.00000879
     atom  211 type  4   force =    -0.00074376   -0.00203348    0.00116195
     atom  212 type  4   force =    -0.00197148    0.00516094   -0.00281645
     atom  213 type  4   force =     0.00200984    0.00240625   -0.00087272
     atom  214 type  4   force =     0.00258136    0.00080432    0.00107123
     atom  215 type  4   force =     0.00162462    0.00205976    0.00055149
     atom  216 type  4   force =     0.00169136   -0.00553922    0.00319705
     atom  217 type  4   force =     0.00260863   -0.00669348    0.00016008
     atom  218 type  5   force =     0.00003368    0.00133263   -0.00046669
     atom  219 type  5   force =     0.00140506   -0.00455254    0.00063906

     Total force =     0.040072     Total SCF correction =     0.000226
     Energy error            =      3.1E-03 Ry
     Gradient error          =      1.6E-02 Ry/Bohr

     number of scf cycles    =   4
     number of bfgs steps    =   3

     energy             old  =   -2938.1002290736 Ry
     energy             new  =   -2938.1032855951 Ry

     CASE: energy            _new < energy            _old

     new trust radius        =       0.0666083591 bohr
     new conv_thr            =       0.0000000159 Ry


ATOMIC_POSITIONS (angstrom)
Mg              10.1449094359        5.4251972747        5.8717943852
Mg              12.1294394538        6.1535612651        1.1469794497
Mg              10.5542714092        7.4484337792        3.4947423767
Mg              -0.7422404273       13.5799425748        5.8557080087
Mg              -0.4103981180       11.5704861136        1.1807416892
Mg               1.1654866119       12.8630538610        3.5173625673
O               11.4333169114        4.4553501978        0.1733518334
O               12.3714043140        7.6795711339        2.5173968725
O                9.1194108168        6.8879518496        4.8396850749
O                0.4664038073       14.5539287661        4.4928520740
O               -1.8615169769       12.1430354656        6.8299620756
O                1.3904818757       11.3316957123        2.1574719105
O               10.8175459855        5.4797807681        2.6570914833
O               11.7998045195        6.6226312347        4.9900199731
O               10.3294067161        6.9165939186        0.3197072129
O               -0.1619433055       13.5325814593        2.0188311922
O               -0.6628106606       12.1096840023        4.3542450111
O                0.8212708174       12.3862409082        6.6911539484
O               10.2102035176        4.0549251552        4.2799478921
O               13.3254358355        6.8332191692        6.6186984941
O                9.3721998860        8.1155635131        1.9454876483
O               -0.7452245706       14.9564077154        0.3907417359
O               -1.6039300276       10.8920738055        2.7272123586
O                2.3448722314       12.1789955878        5.0645743374
H               10.5743485057        1.7572726132        3.7772646863
H               15.1457943008        8.2734980957        6.1117647200
H                7.2153102931        8.9783956253        1.4387888926
H               -0.4071763867       17.2535789709        0.8974045243
H               -3.7614241359       10.0321370620        3.2341099729
H                4.1700795323       10.7382770570        5.5705338242
H                0.8067615992       18.9797254458        0.0624805598
H               -5.8625059020       10.2208644230        2.3983402472
H                5.0564826673        8.8229413017        4.7346754317
H               11.7835211333        0.0333462395        4.6108912277
H               16.0334402020       10.1873521052        6.9471277500
H                5.1156769337        8.7929239732        2.2749391147
H               11.8803642343        2.2065945785        6.0404142241
H               14.1019246045        9.1859800103        1.3669607646
H                6.9500363261        7.6370141911        3.7110600966
H                0.9046281044       16.8056927924        5.6422685790
H               -4.0293599002       11.3921589508        0.9693581415
H                3.1255160824        9.8267794150        3.3061245320
H                2.7235229341       15.5476717752        1.4783704773
H               -3.8490863416       13.5967894185        3.8147753230
H                1.1264415976        8.8805724606        6.1512329156
H               13.7003517935        3.4647549217        3.1944538486
H               12.1029771270       10.1325579177        5.5309576215
H                3.6220422486       14.1504757740        5.8989392321
H               -3.0899463204       15.0717873167        1.2256094001
H               -0.5317320173        8.8003365185        3.5622765726
H               14.5983759898        4.8614380396        5.7832995670
H               10.4435139781       10.2119131829        1.1101933573
H                6.0016499352       13.6424748745        5.6228245402
H               -3.8383813743       17.3900513989        0.9499553071
H               -2.1631208538        6.9931150012        3.2863005538
H               16.9786906501        5.3700373132        6.0593013303
H                8.8138311301       12.0187879292        1.3864291100
H                5.4030662381       14.9013355399        4.5325172066
H               -4.6292275825       16.2405889854        6.8691537413
H               -0.7734715053        6.8827608423        2.1961159138
H               16.3798153470        4.1111368691        0.1402370885
H               10.2031736267       12.1297364720        2.4767568392
H                5.0329235922       16.4281654345        1.3756453660
H               -5.7672453445       15.1565957776        3.7130906735
H                0.7342336824        6.4399098267        6.0483437772
H               16.0098825305        2.5842854493        3.2971534542
H               11.7108140810       12.5727783207        5.6336043700
H                5.5909440687       15.1443299164        2.4526721174
H               -4.9341477723       16.2816646963        4.7889340959
H               -0.6569910116        6.5984310919        0.1162016717
H               16.5676825625        3.8680496241        2.2201693018
H               10.3199439973       12.4139879759        4.5565671652
H                7.2654593532       14.3986586189        0.8069535766
H               -5.1235172917       18.0908500292        3.1327164151
H               -2.1398496364        5.5208568511        5.4796784869
H               18.2421988804        4.6138498407        3.8658641888
H                8.8370550649       13.4912812355        6.2023140705
H                7.4973485106       16.1191091759        1.1032253506
H               -6.7302747756       17.4468375541        3.4388314735
H               -0.7661372240        4.4597544645        5.7760933095
H               18.4742848697        2.8931655498        3.5695790622
H               10.2107377688       14.5529024460        5.9059109698
H                6.2516336045       16.6745258678        6.0198925140
H               -6.5903459816       16.0899776975        1.3457465053
H                0.3380449026        5.2614157262        3.6836489726
H               17.2285646821        2.3379542498        5.6621671006
H               11.3147290420       13.7512200426        0.9892805630
H                7.5691775994       15.5580316773        5.6391438904
H               -6.2814056154       17.7904202161        0.9662749670
H               -1.2879366972        4.6782067619        3.3026579871
H               18.5460605999        3.4542640143        6.0430855282
H                9.6890051671       14.3343066614        1.3702826093
H                2.3387512817       13.9790916141        0.7867912077
H               -2.2986402170       14.0480397619        3.1233173777
H               -0.0394318380        9.9974708175        5.4596473195
H               13.3155751118        5.0333635062        3.8862484641
H               10.9363077172        9.0149541996        6.2223579317
H                4.8349620698       13.4142635039        0.8695420125
H               -3.0572396344       16.4929809560        3.2061067240
H               -1.7773222173        8.1177776228        5.5425544233
H               15.8118247625        5.5981538294        3.8031781813
H                9.1999316868       10.8940065499        6.1400020762
H                3.6965563139       13.1537166231        2.8545531644
H               -2.2614582489       15.6372653190        5.1911793947
H               -1.4342116574        9.2332757065        0.5180842830
H               14.6727025636        5.8588448313        1.8180278317
H                9.5429293431        9.7760660811        4.1548078062
H                3.2893948589       14.6038792473        3.4780561205
H               -3.3146772035       14.5570629613        5.8149340051
H                0.0265085136        8.8630581778        1.1417473900
H               14.2655234337        4.4085859291        1.1946273695
H               11.0031911398       10.1513382826        3.5306869209
C               11.3076762100        3.2785516572        0.7980676936
C               13.4567706410        8.1617996191        3.1390522779
C                8.1688592185        7.5982729951        5.4676711684
C                0.3403127712       15.7345226743        3.8707004061
C               -2.8201107673       11.4405273540        6.2071017656
C                2.4785145802       10.8504741422        1.5346507442
C               10.9431271923        3.1297492959        2.1824082122
C               13.7713513038        7.9177461042        4.5219300601
C                8.2240125884        7.9862724404        6.8498276057
C               -0.0290138268       15.8850836806        2.4876816190
C               -2.7655028329       11.0447005615        4.8243906085
C                2.7946060976       11.0947911920        0.1519287962
C               10.8708604651        1.8313196972        2.7391178136
C               14.9311093844        8.5013148815        5.0757975600
C                7.1330232438        8.6901579956        0.3986122853
C               -0.1040585657       17.1817730835        1.9337542338
C               -3.8512541528       10.3318514891        4.2700956871
C                3.9555607404       10.5106770113        6.6066812449
C               11.1614405346        0.6713923821        2.0154462029
C               15.7908550808        9.3324251953        4.3514761969
C                5.9799545460        9.0106118142        6.6872383329
C                0.1856132911       18.3423016933        2.6577958389
C               -5.0013125251       10.0030591666        4.9935661224
C                4.8158025303        9.6772846609        0.3198368987
C               11.5182025236        0.8371164827        0.6531375280
C               15.4708258984        9.5564635842        2.9895126760
C                5.9462925204        8.6290142276        5.3240196060
C                0.5399360741       18.1764125958        4.0202368593
C               -5.0347530333       10.3926597465        6.3558611342
C                4.4927980564        9.4544068868        1.6818574408
C               11.5806506138        2.0918477945        0.0669652146
C               14.3522179933        8.9823006741        2.4029340970
C                7.0104905805        7.9657419068        4.7388161736
C                0.6018842378       16.9205869628        4.6066504229
C               -3.9782907438       11.0744846541        6.9422666682
C                3.3741627816       10.0297182875        2.2692556501
C               10.6445830706        4.2773003406        3.0838626961
C               12.9226906980        7.0831960236        5.4271399970
C                9.3569241884        7.6502951909        0.7517806457
C               -0.3266023351       14.7367473063        1.5814378772
C               -1.6223367894       11.3616665203        3.9184037758
C                1.9483346821       11.9268197459        6.2556814484
C                4.4471757562       14.4481167235        0.7472668594
C               -3.7589915196       15.6393776105        3.0832104619
C               -0.6879394088        7.9370423209        5.4200849345
C               15.4239414367        4.5642167355        3.9256957984
C               10.2888522992       11.0753102202        6.2619631691
C                5.5904766772       14.6699889790        5.5836781615
C               -4.5220166621       16.5182945031        0.9109350758
C               -1.0675813896        6.8361412901        3.2473072346
C               16.5669676313        4.3424119667        6.0982807069
C                9.9094804082       12.1760034056        1.4254932746
C                6.6177908244       15.6528801240        6.1709598041
C               -5.8881809092       16.9158324848        1.4965625761
C               -0.7301668167        5.4547869209        3.8345138631
C               17.5946143605        3.3596002748        5.5110996103
C               10.2467014760       13.5575307447        0.8383453466
C                5.4546641632       15.4156608589        1.4011799071
C               -5.1010808117       16.0263728329        3.7371248922
C               -0.3536342018        6.5807120707        6.0740259141
C               16.4315136798        3.5968001535        3.2716827459
C               10.6230289843       12.4315615679        5.6080694883
C                6.8103991715       15.3873117556        0.6680353928
C               -5.7557417367       17.2092004253        3.0012340355
C               -1.0561125750        5.4207706987        5.3409727722
C               17.7872250605        3.6249726817        4.0047500014
C                9.9208349975       13.5917165534        6.3410992057
C                3.0589428222       14.5103530522        1.4077365240
C               -3.1187362550       14.4061484429        3.7441996349
C                0.0602320983        9.1080873389        6.0805196049
C               14.0355881408        4.5022060222        3.2650086692
C               11.0369250723        9.9042764397        5.6015699825
N                4.3067805475       14.7794281672        6.3189919512
N               -3.9747940195       15.3557546430        1.6463394876
N               -0.3316595675        7.8926011027        3.9827001429
N               15.2841498889        4.2335628789        5.3631270224
N               10.6458919744       11.1196558323        0.6904607564
N                3.0091595428       13.9092618593        2.7849125498
N               -2.5752091831       14.6653855773        5.1202404810
N               -0.4362694830        9.4511702624        0.4480026913
N               13.9855408963        5.1029756600        1.8880971170
N               10.5418013889        9.5626971682        4.2245204785
O                8.2345654472        4.8123861130        6.7148635400
O                6.2144670676        5.1285875739        5.7018727435
H                6.4702588231        5.7942750969        2.9926321760
H                6.8532362879        4.0520851142        4.6736142366
H                8.3263041981        3.6413869321        4.0030190476
H                7.7724125940        1.3373924002        3.7000266748
H                7.6372701959        1.8570641294        5.3806103866
H                5.4115741852        5.7220219034        0.8663453664
H                4.8199807906        3.4521077574        1.6208174466
H                4.7081882859        3.9247989964        3.3059329826
H                4.0005649552        1.5374356902        3.0310191372
H                5.5197982510        1.1640104751        2.2497775497
H                5.1712657688        2.0516529368        5.1695965351
H                5.6483891096        0.4591561436        4.6362555188
H                8.0119542551        5.4219652490        2.2483734653
H                7.2823995191        3.0802822935        1.8641112356
C                6.7293503372        3.6877565235        2.5850592196
C                7.1823037199        1.9419718735        4.3932851402
C                5.7100918693        1.5181486905        4.3839100106
C                5.2459260778        3.2744760856        2.6088314505
C                5.0611097007        1.7993712656        3.0141306865
C                6.9492634688        5.1838492673        2.2304925122
C                6.9855633168        5.1287216748        6.7238482638
N                7.3225388931        3.3930942855        3.9619183710
N                6.4001456469        5.5156449280        0.9236610622



     Writing config-only to output data dir ./tmp/b_MOF_CO2_bound.save/ :
     XML data file
     NEW-OLD atomic charge density approx. for the potential

     Check: negative core charge=   -0.000001

     negative rho (up, down):  1.385E-04 0.000E+00

     total cpu time spent up to now is     3399.7 secs

     per-process dynamical memory:   356.2 Mb

     Self-consistent Calculation

     iteration #  1     ecut=    60.00 Ry     beta= 0.30
     Davidson diagonalization with overlap
     ethr =  1.00E-06,  avg # of iterations =  5.0

     negative rho (up, down):  1.387E-04 0.000E+00

     total cpu time spent up to now is     3507.2 secs

     total energy              =   -2938.10628611 Ry
     estimated scf accuracy    <       0.00133822 Ry

     iteration #  2     ecut=    60.00 Ry     beta= 0.30
     Davidson diagonalization with overlap
     ethr =  2.19E-07,  avg # of iterations =  2.0

     negative rho (up, down):  1.388E-04 0.000E+00

     total cpu time spent up to now is     3573.6 secs

     total energy              =   -2938.10630961 Ry
     estimated scf accuracy    <       0.00037058 Ry

     iteration #  3     ecut=    60.00 Ry     beta= 0.30
     Davidson diagonalization with overlap
     ethr =  6.08E-08,  avg # of iterations =  5.0

     negative rho (up, down):  1.388E-04 0.000E+00

     total cpu time spent up to now is     3645.7 secs

     total energy              =   -2938.10637375 Ry
     estimated scf accuracy    <       0.00005947 Ry

     iteration #  4     ecut=    60.00 Ry     beta= 0.30
     Davidson diagonalization with overlap
     ethr =  9.75E-09,  avg # of iterations =  5.0

     negative rho (up, down):  1.388E-04 0.000E+00

     total cpu time spent up to now is     3722.9 secs

     total energy              =   -2938.10638681 Ry
     estimated scf accuracy    <       0.00001422 Ry

     iteration #  5     ecut=    60.00 Ry     beta= 0.30
     Davidson diagonalization with overlap
     ethr =  2.33E-09,  avg # of iterations =  5.0

     negative rho (up, down):  1.388E-04 0.000E+00
