
     Program PWSCF v.7.5 starts on 16Sep2026 at 18:29:18 

     This program is part of the open-source Quantum ESPRESSO suite
     for quantum simulation of materials; please cite
         "P. Giannozzi et al., J. Phys.:Condens. Matter 21 395502 (2009);
         "P. Giannozzi et al., J. Phys.:Condens. Matter 29 465901 (2017);
         "P. Giannozzi et al., J. Chem. Phys. 152 154105 (2020);
          URL http://www.quantum-espresso.org", 
     in publications or presentations arising from this work. More details at
     http://www.quantum-espresso.org/quote

     Parallel version (MPI & OpenMP), running on      16 processor cores
     Number of MPI processes:                 8
     Threads/MPI process:                     2

     MPI processes distributed on     1 nodes
     25419 MiB available memory on the printing compute node when the environment starts

     Reading input from espresso.pwi
Warning: card &CELL ignored
Warning: card &FCP ignored
Warning: card &RISM ignored

     Current dimensions of program PWSCF are:
     Max number of different atomic species (ntypx) = 10
     Max number of k-points (npk) =  40000
     Max angular momentum in pseudopotentials (lmaxx) =  4
     file C.pbe-n-kjpaw_psl.1.0.0.UPF: wavefunction(s)  2S 2P renormalized
     file O.pbe-n-kjpaw_psl.0.1.UPF: wavefunction(s)  2P renormalized

     IMPORTANT: XC functional enforced from input :
     Exchange-correlation= VDW-DF
                           (   1   4   4   0   1   0   0)
     Any further DFT definition will be discarded
     Please, verify this is what you really want

     Message from routine setup:
     using ibrav=0 with symmetry is DISCOURAGED, use correct ibrav instead

     R & G space division:  proc/nbgrp/npool/nimage =       8
     Subspace diagonalization in iterative solution of the eigenvalue problem:
     a serial algorithm will be used


     Parallelization info
     --------------------
     sticks:   dense  smooth     PW     G-vecs:    dense   smooth      PW
     Min        3833    1916    479               505534   178704   22365
     Max        3835    1917    480               505537   178707   22368
     Sum       30669   15329   3833              4044289  1429635  178925

     Using Slab Decomposition



     bravais-lattice index     =            0
     lattice parameter (alat)  =      28.3459  a.u.
     unit-cell volume          =   22775.6289 (a.u.)^3
     number of atoms/cell      =            3
     number of atomic types    =            2
     number of electrons       =        16.00
     number of Kohn-Sham states=            8
     kinetic-energy cutoff     =      60.0000  Ry
     charge density cutoff     =     480.0000  Ry
     scf convergence threshold =      1.0E-07
     mixing beta               =       0.3000
     number of iterations used =            8  plain     mixing
     Exchange-correlation= VDW-DF
                           (   1   4   4   0   1   0   0)

     celldm(1)=  28.345892  celldm(2)=   0.000000  celldm(3)=   0.000000
     celldm(4)=   0.000000  celldm(5)=   0.000000  celldm(6)=   0.000000

     crystal axes: (cart. coord. in units of alat)
               a(1) = (   1.000000   0.000000   0.000000 )  
               a(2) = (   0.000000   1.000000   0.000000 )  
               a(3) = (   0.000000   0.000000   1.000000 )  

     reciprocal axes: (cart. coord. in units 2 pi/alat)
               b(1) = (  1.000000  0.000000  0.000000 )  
               b(2) = (  0.000000  1.000000  0.000000 )  
               b(3) = (  0.000000  0.000000  1.000000 )  


     PseudoPot. # 1 for C  read from file:
     /home/seyoung/pseudo/C.pbe-n-kjpaw_psl.1.0.0.UPF
     MD5 check sum: 5d2aebdfa2cae82b50a7e79e9516da0f
     Pseudo is Projector augmented-wave + core cor, Zval =  4.0
     Generated using "atomic" code by A. Dal Corso  v.5.1
     Shape of augmentation charge: PSQ
     Using radial grid of 1073 points,  4 beta functions with: 
                l(1) =   0
                l(2) =   0
                l(3) =   1
                l(4) =   1
     Q(r) pseudized with 0 coefficients 


     PseudoPot. # 2 for O  read from file:
     /home/seyoung/pseudo/O.pbe-n-kjpaw_psl.0.1.UPF
     MD5 check sum: 0234752ac141de4415c5fc33072bef88
     Pseudo is Projector augmented-wave + core cor, Zval =  6.0
     Generated using "atomic" code by A. Dal Corso  v.5.0.99 svn rev. 10869
     Shape of augmentation charge: BESSEL
     Using radial grid of 1095 points,  4 beta functions with: 
                l(1) =   0
                l(2) =   0
                l(3) =   1
                l(4) =   1
     Q(r) pseudized with 0 coefficients 


     atomic species   valence    mass     pseudopotential
     C                 4.00    12.01100     C ( 1.00)
     O                 6.00    15.99900     O ( 1.00)

     16 Sym. Ops., with inversion, found



   Cartesian axes

     site n.     atom                  positions (alat units)
         1        C      tau(   1) = (   0.5000000   0.5000000   0.5000000  )
         2        O      tau(   2) = (   0.5782060   0.5000000   0.5000000  )
         3        O      tau(   3) = (   0.4217940   0.5000000   0.5000000  )

     number of k points=     1
                       cart. coord. in units 2pi/alat
        k(    1) = (   0.0000000   0.0000000   0.0000000), wk =   2.0000000

     Dense  grid:  4044289 G-vectors     FFT dimensions: ( 200, 200, 200)

     Smooth grid:  1429635 G-vectors     FFT dimensions: ( 144, 144, 144)

     Estimated max dynamical RAM per process >     650.84 MB

     Estimated total dynamical RAM >       5.08 GB

     Initial potential from superposition of free atoms

     starting charge      16.0000, renormalised to      16.0000

     negative rho (up, down):  1.300E-03 0.000E+00


     %%%%%%%%%%%%%%%%%%%%%%%%%%%%%%%%%%%%%%%%%%%%%%%%%%%%%%%%%%%%%%%%%%%%%%%%
     %                                                                      %
     % You are using vdW-DF, which was implemented by the Thonhauser group. %
     % Please cite the following two papers that made this development      %
     % possible and the two reviews that describe the various versions:     %
     %                                                                      %
     %   T. Thonhauser et al., PRL 115, 136402 (2015).                      %
     %   T. Thonhauser et al., PRB 76, 125112 (2007).                       %
     %   K. Berland et al., Rep. Prog. Phys. 78, 066501 (2015).             %
     %   D.C. Langreth et al., J. Phys.: Condens. Matter 21, 084203 (2009). %
     %                                                                      %
     % If you are calculating stress with vdW-DF, please also cite:         %
     %                                                                      %
     %   R. Sabatini et al., J. Phys.: Condens. Matter 24, 424209 (2012).   %
     %                                                                      %
     %%%%%%%%%%%%%%%%%%%%%%%%%%%%%%%%%%%%%%%%%%%%%%%%%%%%%%%%%%%%%%%%%%%%%%%%

     %%%%%%%%%%%%%%%%%%%%%%%%%%%%%%%%%%%%%%%%%%%%%%%%%%%%%%%%%%%%%%%%%%%%%%%%
     %                                                                      %
     %  vdW-DF NEWS:                                                        %
     %                                                                      %
     %  * vdW-DF3 is now available. DOI: 10.1021/acs.jctc.0c00471           %
     %    use with input_dft = 'vdW-DF3-opt1' or 'vdW-DF3-opt2'             %
     %                                                                      %
     %  * Unscreened and range-separated hybrid vdW-DF-cx functionals       %
     %    DOI: 10.1063/1.4986522 and 10.1088/1361-648X/ac2ad2               %
     %    use with input_dft = 'vdW-DF-cx0'    and 'vdW-DF-ahcx'            %
     %  * Unscreened and range-separated hybrid vdW-DF2-b86r functionals    %
     %    DOI: 10.1063/1.4986522 and DOI: 10.1103/PhysRevX.12.041003        %
     %    use with input_dft = 'vdW-DF2-br0' and 'vdW-DF2-ahbr'             %
     %                                                                      %
     %%%%%%%%%%%%%%%%%%%%%%%%%%%%%%%%%%%%%%%%%%%%%%%%%%%%%%%%%%%%%%%%%%%%%%%%


     Starting wfcs are   12 randomized atomic wfcs
     Checking if some PAW data can be deallocated... 

     total cpu time spent up to now is       22.4 secs

     per-process dynamical memory:   226.2 Mb

     Self-consistent Calculation

     iteration #  1     ecut=    60.00 Ry     beta= 0.30
     Davidson diagonalization with overlap
     ethr =  1.00E-02,  avg # of iterations =  2.0

     negative rho (up, down):  1.681E-03 0.000E+00

     total cpu time spent up to now is       33.9 secs

     total energy              =    -103.21031955 Ry
     estimated scf accuracy    <       0.54135946 Ry

     iteration #  2     ecut=    60.00 Ry     beta= 0.30
     Davidson diagonalization with overlap
     ethr =  3.38E-03,  avg # of iterations =  2.0

     negative rho (up, down):  1.851E-03 0.000E+00

     total cpu time spent up to now is       45.0 secs

     total energy              =    -103.30346322 Ry
     estimated scf accuracy    <       0.04520030 Ry

     iteration #  3     ecut=    60.00 Ry     beta= 0.30
     Davidson diagonalization with overlap
     ethr =  2.83E-04,  avg # of iterations =  3.0

     negative rho (up, down):  2.244E-03 0.000E+00

     total cpu time spent up to now is       56.0 secs

     total energy              =    -103.29920397 Ry
     estimated scf accuracy    <       0.02449857 Ry

     iteration #  4     ecut=    60.00 Ry     beta= 0.30
     Davidson diagonalization with overlap
     ethr =  1.53E-04,  avg # of iterations =  5.0

     negative rho (up, down):  2.216E-03 0.000E+00

     total cpu time spent up to now is       67.3 secs

     total energy              =    -103.30457686 Ry
     estimated scf accuracy    <       0.02222697 Ry

     iteration #  5     ecut=    60.00 Ry     beta= 0.30
     Davidson diagonalization with overlap
     ethr =  1.39E-04,  avg # of iterations =  2.0

     negative rho (up, down):  2.206E-03 0.000E+00

     total cpu time spent up to now is       78.2 secs

     total energy              =    -103.30156037 Ry
     estimated scf accuracy    <       0.00656033 Ry

     iteration #  6     ecut=    60.00 Ry     beta= 0.30
     Davidson diagonalization with overlap
     ethr =  4.10E-05,  avg # of iterations =  4.0

     negative rho (up, down):  2.214E-03 0.000E+00

     total cpu time spent up to now is       89.3 secs

     total energy              =    -103.30415403 Ry
     estimated scf accuracy    <       0.00358116 Ry

     iteration #  7     ecut=    60.00 Ry     beta= 0.30
     Davidson diagonalization with overlap
     ethr =  2.24E-05,  avg # of iterations =  2.0

     negative rho (up, down):  2.220E-03 0.000E+00

     total cpu time spent up to now is      100.2 secs

     total energy              =    -103.30454889 Ry
     estimated scf accuracy    <       0.00019235 Ry

     iteration #  8     ecut=    60.00 Ry     beta= 0.30
     Davidson diagonalization with overlap
     ethr =  1.20E-06,  avg # of iterations =  5.0

     negative rho (up, down):  2.231E-03 0.000E+00

     total cpu time spent up to now is      111.5 secs

     total energy              =    -103.30466634 Ry
     estimated scf accuracy    <       0.00017191 Ry

     iteration #  9     ecut=    60.00 Ry     beta= 0.30
     Davidson diagonalization with overlap
     ethr =  1.07E-06,  avg # of iterations =  3.0

     negative rho (up, down):  2.236E-03 0.000E+00

     total cpu time spent up to now is      122.6 secs

     total energy              =    -103.30471252 Ry
     estimated scf accuracy    <       0.00000191 Ry

     iteration # 10     ecut=    60.00 Ry     beta= 0.30
     Davidson diagonalization with overlap
     ethr =  1.19E-08,  avg # of iterations =  6.0

     negative rho (up, down):  2.240E-03 0.000E+00

     total cpu time spent up to now is      134.2 secs

     total energy              =    -103.30471247 Ry
     estimated scf accuracy    <       0.00001354 Ry

     iteration # 11     ecut=    60.00 Ry     beta= 0.30
     Davidson diagonalization with overlap
     ethr =  1.19E-08,  avg # of iterations =  3.0

     negative rho (up, down):  2.243E-03 0.000E+00

     total cpu time spent up to now is      145.2 secs

     total energy              =    -103.30471044 Ry
     estimated scf accuracy    <       0.00000575 Ry

     iteration # 12     ecut=    60.00 Ry     beta= 0.30
     Davidson diagonalization with overlap
     ethr =  1.19E-08,  avg # of iterations =  3.0

     negative rho (up, down):  2.246E-03 0.000E+00

     total cpu time spent up to now is      156.2 secs

     total energy              =    -103.30471125 Ry
     estimated scf accuracy    <       0.00000021 Ry

     iteration # 13     ecut=    60.00 Ry     beta= 0.30
     Davidson diagonalization with overlap
     ethr =  1.29E-09,  avg # of iterations =  4.0

     negative rho (up, down):  2.254E-03 0.000E+00

     total cpu time spent up to now is      167.1 secs

     End of self-consistent calculation

          k = 0.0000 0.0000 0.0000 (178925 PWs)   bands (ev):

   -29.2424 -28.2523 -13.9410 -12.7771 -12.7058 -12.7058  -9.1587  -9.1587

     highest occupied level (ev):    -9.1587

!    total energy              =    -103.30471131 Ry
     total all-electron energy =      -378.762594 Ry
     estimated scf accuracy    <       0.00000006 Ry

     The total energy is the sum of the following terms:
     one-electron contribution =    -187.51995369 Ry
     hartree contribution      =      96.15126655 Ry
     xc contribution           =     -19.77380511 Ry
     ewald contribution        =      34.09898017 Ry
     one-center paw contrib.   =     -26.26119923 Ry

     convergence has been achieved in  13 iterations
     Message from routine punch:
     Nothing written, as per user request (disk_io='none')

     init_run     :     22.72s CPU     22.30s WALL (       1 calls)
     electrons    :    164.34s CPU    144.70s WALL (       1 calls)

     Called by init_run:
     wfcinit      :      0.46s CPU      0.23s WALL (       1 calls)
     potinit      :     18.51s CPU     18.09s WALL (       1 calls)
     hinit0       :      0.69s CPU      0.67s WALL (       1 calls)

     Called by electrons:
     c_bands      :     18.48s CPU      9.36s WALL (      13 calls)
     sum_band     :     25.20s CPU     21.29s WALL (      13 calls)
     v_of_rho     :    120.53s CPU    113.08s WALL (      14 calls)
     newd         :     13.95s CPU     15.83s WALL (      14 calls)
     PAW_pot      :      0.61s CPU      0.33s WALL (      14 calls)
     mix_rho      :      2.66s CPU      2.18s WALL (      13 calls)
     vdW_kernel   :     10.11s CPU     10.12s WALL (       1 calls)

     Called by c_bands:
     init_us_2    :      0.54s CPU      0.28s WALL (      27 calls)
     cegterg      :     17.89s CPU      9.06s WALL (      13 calls)

     Called by *egterg:
     cdiaghg      :      0.02s CPU      0.01s WALL (      57 calls)
     h_psi        :     15.50s CPU      7.87s WALL (      58 calls)
     s_psi        :      0.42s CPU      0.22s WALL (      58 calls)
     g_psi        :      0.10s CPU      0.05s WALL (      44 calls)

     Called by h_psi:
     h_psi:calbec :      0.51s CPU      0.25s WALL (      58 calls)
     vloc_psi     :     14.45s CPU      7.34s WALL (      58 calls)
                                        0.00s GPU  (      58 calls)
     add_vuspsi   :      0.35s CPU      0.18s WALL (      58 calls)

     General routines
     calbec       :      0.59s CPU      0.30s WALL (      71 calls)
     fft          :     66.87s CPU     51.92s WALL (     880 calls)
     ffts         :      1.15s CPU      0.93s WALL (      27 calls)
     fftw         :     14.66s CPU      7.44s WALL (     782 calls)
     interpolate  :      1.78s CPU      1.39s WALL (      14 calls)

     Parallel routines

     PWSCF        :   3m 7.23s CPU   2m47.16s WALL


   This run was terminated on:  18:32: 5  16Sep2026            

=------------------------------------------------------------------------------=
   JOB DONE.
=------------------------------------------------------------------------------=
Note: The following floating-point exceptions are signalling: IEEE_INVALID_FLAG IEEE_UNDERFLOW_FLAG IEEE_DENORMAL
Note: The following floating-point exceptions are signalling: IEEE_INVALID_FLAG IEEE_UNDERFLOW_FLAG IEEE_DENORMAL
Note: The following floating-point exceptions are signalling: IEEE_INVALID_FLAG IEEE_UNDERFLOW_FLAG IEEE_DENORMAL
Note: The following floating-point exceptions are signalling: IEEE_INVALID_FLAG IEEE_UNDERFLOW_FLAG IEEE_DENORMAL
Note: The following floating-point exceptions are signalling: IEEE_INVALID_FLAG IEEE_UNDERFLOW_FLAG IEEE_DENORMAL
Note: The following floating-point exceptions are signalling: IEEE_INVALID_FLAG IEEE_UNDERFLOW_FLAG IEEE_DENORMAL
Note: The following floating-point exceptions are signalling: IEEE_INVALID_FLAG IEEE_UNDERFLOW_FLAG IEEE_DENORMAL
Note: The following floating-point exceptions are signalling: IEEE_INVALID_FLAG IEEE_UNDERFLOW_FLAG IEEE_DENORMAL
