
     Program PWSCF v.7.5 starts on 17Sep2026 at 12:58:59 

     This program is part of the open-source Quantum ESPRESSO suite
     for quantum simulation of materials; please cite
         "P. Giannozzi et al., J. Phys.:Condens. Matter 21 395502 (2009);
         "P. Giannozzi et al., J. Phys.:Condens. Matter 29 465901 (2017);
         "P. Giannozzi et al., J. Chem. Phys. 152 154105 (2020);
          URL http://www.quantum-espresso.org", 
     in publications or presentations arising from this work. More details at
     http://www.quantum-espresso.org/quote

     Parallel version (MPI & OpenMP), running on      48 processor cores
     Number of MPI processes:                24
     Threads/MPI process:                     2

     MPI processes distributed on     1 nodes
     23797 MiB available memory on the printing compute node when the environment starts

     Reading input from espresso.pwi
Warning: card &CELL ignored
Warning: card &FCP ignored
Warning: card &RISM ignored

     Current dimensions of program PWSCF are:
     Max number of different atomic species (ntypx) = 10
     Max number of k-points (npk) =  40000
     Max angular momentum in pseudopotentials (lmaxx) =  4
     file Mg.pbe-n-kjpaw_psl.0.3.0.UPF: wavefunction(s)  3S renormalized
     file O.pbe-n-kjpaw_psl.0.1.UPF: wavefunction(s)  2P renormalized
     file C.pbe-n-kjpaw_psl.1.0.0.UPF: wavefunction(s)  2S 2P renormalized

     IMPORTANT: XC functional enforced from input :
     Exchange-correlation= PBE
                           (   1   4   3   4   0   0   0)
     Any further DFT definition will be discarded
     Please, verify this is what you really want


     R & G space division:  proc/nbgrp/npool/nimage =      24
     Subspace diagonalization in iterative solution of the eigenvalue problem:
     one sub-group per band group will be used
     ELPA distributed-memory algorithm (size of sub-group:  3*  3 procs)


     Parallelization info
     --------------------
     sticks:   dense  smooth     PW     G-vecs:    dense   smooth      PW
     Min        2371    1186    314               146091    51664    7070
     Max        2372    1187    316               146094    51667    7071
     Sum       56923   28471   7567              3506219  1239959  169683

     Using Slab Decomposition



     bravais-lattice index     =            0
     lattice parameter (alat)  =      41.4864  a.u.
     unit-cell volume          =   19743.0089 (a.u.)^3
     number of atoms/cell      =          219
     number of atomic types    =            5
     number of electrons       =       610.00
     number of Kohn-Sham states=          305
     kinetic-energy cutoff     =      60.0000  Ry
     charge density cutoff     =     480.0000  Ry
     scf convergence threshold =      1.0E-07
     mixing beta               =       0.3000
     number of iterations used =            8  plain     mixing
     Exchange-correlation= PBE
                           (   1   4   3   4   0   0   0)

     celldm(1)=  41.486424  celldm(2)=   0.000000  celldm(3)=   0.000000
     celldm(4)=   0.000000  celldm(5)=   0.000000  celldm(6)=   0.000000

     crystal axes: (cart. coord. in units of alat)
               a(1) = (   1.000000   0.000000   0.000000 )  
               a(2) = (  -0.500000   0.866025   0.000000 )  
               a(3) = (   0.000000   0.000000   0.319275 )  

     reciprocal axes: (cart. coord. in units 2 pi/alat)
               b(1) = (  1.000000  0.577351 -0.000000 )  
               b(2) = (  0.000000  1.154701  0.000000 )  
               b(3) = (  0.000000 -0.000000  3.132096 )  


     PseudoPot. # 1 for Mg read from file:
     /home/seyoung/pseudo/Mg.pbe-n-kjpaw_psl.0.3.0.UPF
     MD5 check sum: 24ecedc7f3e3cbe212e682f4413594e4
     Pseudo is Projector augmented-wave + core cor, Zval =  2.0
     Generated using "atomic" code by A. Dal Corso  v.5.0.99 svn rev. 10869
     Shape of augmentation charge: PSQ
     Using radial grid of 1129 points,  4 beta functions with: 
                l(1) =   0
                l(2) =   0
                l(3) =   1
                l(4) =   1
     Q(r) pseudized with 0 coefficients 


     PseudoPot. # 2 for O  read from file:
     /home/seyoung/pseudo/O.pbe-n-kjpaw_psl.0.1.UPF
     MD5 check sum: 0234752ac141de4415c5fc33072bef88
     Pseudo is Projector augmented-wave + core cor, Zval =  6.0
     Generated using "atomic" code by A. Dal Corso  v.5.0.99 svn rev. 10869
     Shape of augmentation charge: BESSEL
     Using radial grid of 1095 points,  4 beta functions with: 
                l(1) =   0
                l(2) =   0
                l(3) =   1
                l(4) =   1
     Q(r) pseudized with 0 coefficients 


     PseudoPot. # 3 for H  read from file:
     /home/seyoung/pseudo/H.pbe-rrkjus_psl.1.0.0.UPF
     MD5 check sum: f52b6d4d1c606e5624b1dc7b2218f220
     Pseudo is Ultrasoft, Zval =  1.0
     Generated using "atomic" code by A. Dal Corso  v.5.1
     Using radial grid of  929 points,  2 beta functions with: 
                l(1) =   0
                l(2) =   0
     Q(r) pseudized with 0 coefficients 


     PseudoPot. # 4 for C  read from file:
     /home/seyoung/pseudo/C.pbe-n-kjpaw_psl.1.0.0.UPF
     MD5 check sum: 5d2aebdfa2cae82b50a7e79e9516da0f
     Pseudo is Projector augmented-wave + core cor, Zval =  4.0
     Generated using "atomic" code by A. Dal Corso  v.5.1
     Shape of augmentation charge: PSQ
     Using radial grid of 1073 points,  4 beta functions with: 
                l(1) =   0
                l(2) =   0
                l(3) =   1
                l(4) =   1
     Q(r) pseudized with 0 coefficients 


     PseudoPot. # 5 for N  read from file:
     /home/seyoung/pseudo/N.pbe-n-radius_5.UPF
     MD5 check sum: 16739722b17309cd8fe442a2ace49922
     Pseudo is Ultrasoft + core correction, Zval =  5.0
     Generated using "atomic" code by A. Dal Corso  v.5.1
     Using radial grid of 1085 points,  4 beta functions with: 
                l(1) =   0
                l(2) =   0
                l(3) =   1
                l(4) =   1
     Q(r) pseudized with 0 coefficients 


     atomic species   valence    mass     pseudopotential
     Mg                2.00    24.30500     Mg( 1.00)
     O                 6.00    15.99900     O ( 1.00)
     H                 1.00     1.00800     H ( 1.00)
     C                 4.00    12.01100     C ( 1.00)
     N                 5.00    14.00700     N ( 1.00)

     No symmetry found



   Cartesian axes

     site n.     atom                  positions (alat units)
         1        Mg     tau(   1) = (   0.4660674   0.2471846   0.2655415  )
         2        Mg     tau(   2) = (   0.5528953   0.2800358   0.0526909  )
         3        Mg     tau(   3) = (   0.4810335   0.3388097   0.1591189  )
         4        Mg     tau(   4) = (  -0.0339295   0.6188392   0.2665842  )
         5        Mg     tau(   5) = (  -0.0189655   0.5272186   0.0537336  )
         6        Mg     tau(   6) = (   0.0529010   0.5859921   0.1601562  )
         7        O      tau(   7) = (   0.5216068   0.2031478   0.0082527  )
         8        O      tau(   8) = (   0.5632661   0.3501482   0.1146785  )
         9        O      tau(   9) = (   0.4151284   0.3127265   0.2211030  )
        10        O      tau(  10) = (   0.0216042   0.6628769   0.2045965  )
        11        O      tau(  11) = (  -0.0848722   0.5532986   0.3110224  )
        12        O      tau(  12) = (   0.0632649   0.5158750   0.0981721  )
        13        O      tau(  13) = (   0.4924962   0.2497627   0.1208781  )
        14        O      tau(  14) = (   0.5374527   0.3016302   0.2273017  )
        15        O      tau(  15) = (   0.4700531   0.3146301   0.0144515  )
        16        O      tau(  16) = (  -0.0075069   0.6162628   0.0919733  )
        17        O      tau(  17) = (  -0.0299472   0.5513956   0.1983970  )
        18        O      tau(  18) = (   0.0374511   0.5643930   0.3048236  )
        19        O      tau(  19) = (   0.4658737   0.1847958   0.1949374  )
        20        O      tau(  20) = (   0.6070250   0.3110600   0.3013628  )
        21        O      tau(  21) = (   0.4270984   0.3701627   0.0885142  )
        22        O      tau(  22) = (  -0.0341267   0.6812291   0.0179123  )
        23        O      tau(  23) = (  -0.0728990   0.4958563   0.1243377  )
        24        O      tau(  24) = (   0.1070211   0.5549594   0.2307609  )
        25        H      tau(  25) = (   0.4817986   0.0800944   0.1721466  )
        26        H      tau(  26) = (   0.6897372   0.3772030   0.2785718  )
        27        H      tau(  27) = (   0.3284650   0.4087293   0.0657213  )
        28        H      tau(  28) = (  -0.0182012   0.7859314   0.0407033  )
        29        H      tau(  29) = (  -0.1715355   0.4572970   0.1471285  )
        30        H      tau(  30) = (   0.1897375   0.4888237   0.2535538  )
        31        H      tau(  31) = (   0.0366053   0.8645626   0.0027834  )
        32        H      tau(  32) = (  -0.2670359   0.4654440   0.1092076  )
        33        H      tau(  33) = (   0.2304318   0.4020455   0.2156326  )
        34        H      tau(  34) = (   0.5366043   0.0014621   0.2100675  )
        35        H      tau(  35) = (   0.7304305   0.4639824   0.3164916  )
        36        H      tau(  36) = (   0.2329657   0.4005826   0.1036425  )
        37        H      tau(  37) = (   0.5407061   0.1006468   0.2750034  )
        38        H      tau(  38) = (   0.6424830   0.4179417   0.0621534  )
        39        H      tau(  39) = (   0.3168106   0.3474380   0.1685779  )
        40        H      tau(  40) = (   0.0407066   0.7653775   0.2571217  )
        41        H      tau(  41) = (  -0.1831903   0.5185886   0.0442717  )
        42        H      tau(  42) = (   0.1424849   0.4480850   0.1506972  )
        43        H      tau(  43) = (   0.1239695   0.7082828   0.0674891  )
        44        H      tau(  44) = (  -0.1753714   0.6192445   0.1739155  )
        45        H      tau(  45) = (   0.0514047   0.4045278   0.2803374  )
        46        H      tau(  46) = (   0.6239671   0.1577461   0.1453596  )
        47        H      tau(  47) = (   0.5514062   0.4615021   0.2517860  )
        48        H      tau(  48) = (   0.3246290   0.2467817   0.0389377  )
        49        H      tau(  49) = (   0.1650911   0.6444040   0.2688068  )
        50        H      tau(  50) = (  -0.1406051   0.6867824   0.0559578  )
        51        H      tau(  51) = (  -0.0244636   0.4008693   0.1623767  )
        52        H      tau(  52) = (   0.6650736   0.2216236   0.2633173  )
        53        H      tau(  53) = (   0.4755247   0.4651751   0.0504683  )
        54        H      tau(  54) = (   0.3593948   0.1792485   0.1568983  )
        55        H      tau(  55) = (   0.2734662   0.6213840   0.2568004  )
        56        H      tau(  56) = (  -0.1748534   0.7921534   0.0439495  )
        57        H      tau(  57) = (  -0.0986005   0.3185194   0.1503725  )
        58        H      tau(  58) = (   0.7734516   0.2446492   0.2753256  )
        59        H      tau(  59) = (   0.4014012   0.5475207   0.0624747  )
        60        H      tau(  60) = (   0.3251461   0.0738691   0.1689026  )
        61        H      tau(  61) = (   0.2460357   0.6785393   0.2065845  )
        62        H      tau(  62) = (  -0.2106488   0.7398260   0.3130147  )
        63        H      tau(  63) = (  -0.0353844   0.3136887   0.1001607  )
        64        H      tau(  64) = (   0.7460325   0.1874858   0.0062604  )
        65        H      tau(  65) = (   0.4646144   0.5523428   0.1126906  )
        66        H      tau(  66) = (   0.2893546   0.1262005   0.2191144  )
        67        H      tau(  67) = (   0.2293780   0.7484472   0.0620764  )
        68        H      tau(  68) = (  -0.2628495   0.6904443   0.1685011  )
        69        H      tau(  69) = (   0.0334776   0.2931654   0.2749281  )
        70        H      tau(  70) = (   0.7293670   0.1175878   0.1507740  )
        71        H      tau(  71) = (   0.5334853   0.5728708   0.2571987  )
        72        H      tau(  72) = (   0.2371499   0.1755751   0.0443470  )
        73        H      tau(  73) = (   0.2551324   0.6902692   0.1116206  )
        74        H      tau(  74) = (  -0.2253519   0.7418393   0.2180464  )
        75        H      tau(  75) = (  -0.0297800   0.2999475   0.0051933  )
        76        H      tau(  76) = (   0.7551276   0.1757592   0.1012287  )
        77        H      tau(  77) = (   0.4702245   0.5660858   0.2076545  )
        78        H      tau(  78) = (   0.2746521   0.1241835   0.3140818  )
        79        H      tau(  79) = (   0.3313181   0.6561570   0.0367568  )
        80        H      tau(  80) = (  -0.2338888   0.8248670   0.1431862  )
        81        H      tau(  81) = (  -0.0974206   0.2510590   0.2496039  )
        82        H      tau(  82) = (   0.8313002   0.2098799   0.1760889  )
        83        H      tau(  83) = (   0.4025896   0.6150084   0.2825183  )
        84        H      tau(  84) = (   0.2661337   0.0411608   0.0696712  )
        85        H      tau(  85) = (   0.3416378   0.7345290   0.0502668  )
        86        H      tau(  86) = (  -0.3068816   0.7945949   0.1567723  )
        87        H      tau(  87) = (  -0.0347200   0.2029651   0.2631946  )
        88        H      tau(  88) = (   0.8415801   0.1315302   0.1625028  )
        89        H      tau(  89) = (   0.4653019   0.6631316   0.2690083  )
        90        H      tau(  90) = (   0.1931330   0.0714142   0.0560805  )
        91        H      tau(  91) = (   0.2850176   0.7596314   0.2740476  )
        92        H      tau(  92) = (  -0.3003436   0.7330317   0.0611731  )
        93        H      tau(  93) = (   0.0153465   0.2394180   0.1676076  )
        94        H      tau(  94) = (   0.7849959   0.1064107   0.2581020  )
        95        H      tau(  95) = (   0.5153513   0.6266481   0.0452275  )
        96        H      tau(  96) = (   0.1996688   0.1329995   0.1516675  )
        97        H      tau(  97) = (   0.3447530   0.7085569   0.2564712  )
        98        H      tau(  98) = (  -0.2859718   0.8102827   0.0435808  )
        99        H      tau(  99) = (  -0.0587625   0.2132510   0.1499996  )
       100        H      tau( 100) = (   0.8447113   0.1574825   0.2756943  )
       101        H      tau( 101) = (   0.4412518   0.6528433   0.0628039  )
       102        H      tau( 102) = (   0.2140621   0.0557357   0.1692754  )
       103        H      tau( 103) = (   0.1064487   0.6369685   0.0357974  )
       104        H      tau( 104) = (  -0.1048473   0.6397219   0.1422264  )
       105        H      tau( 105) = (  -0.0015899   0.4553671   0.2486481  )
       106        H      tau( 106) = (   0.6064391   0.2290605   0.1770486  )
       107        H      tau( 107) = (   0.4984065   0.4106716   0.2834776  )
       108        H      tau( 108) = (   0.3951544   0.2263067   0.0706270  )
       109        H      tau( 109) = (   0.2201891   0.6110357   0.0399681  )
       110        H      tau( 110) = (  -0.1392553   0.7511935   0.1463936  )
       111        H      tau( 111) = (  -0.0809245   0.3698338   0.2528140  )
       112        H      tau( 112) = (   0.7201803   0.2549982   0.1728815  )
       113        H      tau( 113) = (   0.4190779   0.4962072   0.2793069  )
       114        H      tau( 114) = (   0.3607477   0.1148343   0.0664610  )
       115        H      tau( 115) = (   0.1684386   0.5991188   0.1297932  )
       116        H      tau( 116) = (  -0.1030659   0.7123344   0.2362229  )
       117        H      tau( 117) = (  -0.0653663   0.4205967   0.0233683  )
       118        H      tau( 118) = (   0.6684326   0.2669095   0.0830522  )
       119        H      tau( 119) = (   0.4346327   0.4454315   0.1894819  )
       120        H      tau( 120) = (   0.3969306   0.1536894   0.2959068  )
       121        H      tau( 121) = (   0.1497226   0.6650318   0.1584141  )
       122        H      tau( 122) = (  -0.1507932   0.6631703   0.2648415  )
       123        H      tau( 123) = (   0.0010756   0.4038489   0.0519858  )
       124        H      tau( 124) = (   0.6497189   0.2009944   0.0544336  )
       125        H      tau( 125) = (   0.5010731   0.4621795   0.1608610  )
       126        H      tau( 126) = (   0.3492056   0.2028560   0.2672893  )
       127        C      tau( 127) = (   0.5155804   0.1493323   0.0365580  )
       128        C      tau( 128) = (   0.6128852   0.3718373   0.1429827  )
       129        C      tau( 129) = (   0.3715355   0.3448539   0.2494080  )
       130        C      tau( 130) = (   0.0155780   0.7166928   0.1762923  )
       131        C      tau( 131) = (  -0.1284646   0.5211719   0.2827171  )
       132        C      tau( 132) = (   0.1128844   0.4941861   0.0698671  )
       133        C      tau( 133) = (   0.4987831   0.1424691   0.0995750  )
       134        C      tau( 134) = (   0.6272282   0.3607221   0.2059997  )
       135        C      tau( 135) = (   0.3739899   0.3628320   0.3124251  )
       136        C      tau( 136) = (  -0.0012196   0.7235566   0.1132754  )
       137        C      tau( 137) = (  -0.1260097   0.5031933   0.2197001  )
       138        C      tau( 138) = (   0.1272267   0.5053008   0.0068500  )
       139        C      tau( 139) = (   0.4954011   0.0833931   0.1248597  )
       140        C      tau( 140) = (   0.6800799   0.3873323   0.2312844  )
       141        C      tau( 141) = (   0.3245199   0.3952991   0.0184346  )
       142        C      tau( 142) = (  -0.0046003   0.7826326   0.0879907  )
       143        C      tau( 143) = (  -0.1754800   0.4707265   0.1944154  )
       144        C      tau( 144) = (   0.1800791   0.4786920   0.3008405  )
       145        C      tau( 145) = (   0.5086532   0.0305765   0.0918458  )
       146        C      tau( 146) = (   0.7191937   0.4252177   0.1982703  )
       147        C      tau( 147) = (   0.2721537   0.4102312   0.3046956  )
       148        C      tau( 148) = (   0.0086524   0.8354489   0.1210048  )
       149        C      tau( 149) = (  -0.2278466   0.4557948   0.2274293  )
       150        C      tau( 150) = (   0.2191938   0.4408076   0.0145795  )
       151        C      tau( 151) = (   0.5245529   0.0381197   0.0297339  )
       152        C      tau( 152) = (   0.7047112   0.4352148   0.1361582  )
       153        C      tau( 153) = (   0.2707371   0.3926908   0.2425835  )
       154        C      tau( 154) = (   0.0245515   0.8279051   0.1831169  )
       155        C      tau( 155) = (  -0.2292638   0.4733360   0.2895412  )
       156        C      tau( 156) = (   0.2047116   0.4308106   0.0766916  )
       157        C      tau( 157) = (   0.5272714   0.0953158   0.0029899  )
       158        C      tau( 158) = (   0.6538186   0.4089709   0.1094143  )
       159        C      tau( 159) = (   0.3189108   0.3617377   0.2158396  )
       160        C      tau( 160) = (   0.0272698   0.7707089   0.2098608  )
       161        C      tau( 161) = (  -0.1810898   0.5042883   0.3162852  )
       162        C      tau( 162) = (   0.1538187   0.4570537   0.1034355  )
       163        C      tau( 163) = (   0.4850044   0.1948492   0.1407637  )
       164        C      tau( 164) = (   0.5887543   0.3226002   0.2471886  )
       165        C      tau( 165) = (   0.4262411   0.3485732   0.0343390  )
       166        C      tau( 166) = (  -0.0149972   0.6711763   0.0720865  )
       167        C      tau( 167) = (  -0.0737578   0.5174507   0.1785113  )
       168        C      tau( 168) = (   0.0887527   0.5434223   0.2849361  )
       169        C      tau( 169) = (   0.2026392   0.6581761   0.0341801  )
       170        C      tau( 170) = (  -0.1713017   0.7124223   0.1406047  )
       171        C      tau( 171) = (  -0.0313245   0.3614656   0.2470288  )
       172        C      tau( 172) = (   0.7026267   0.2078595   0.1786704  )
       173        C      tau( 173) = (   0.4686777   0.5045788   0.2850950  )
       174        C      tau( 174) = (   0.3287007   0.1536050   0.0722463  )
       175        C      tau( 175) = (   0.2546824   0.6681607   0.2544972  )
       176        C      tau( 176) = (  -0.2059698   0.7524969   0.0416509  )
       177        C      tau( 177) = (  -0.0486976   0.3114083   0.1480721  )
       178        C      tau( 178) = (   0.7546663   0.1978733   0.2776242  )
       179        C      tau( 179) = (   0.4513029   0.5546418   0.0647778  )
       180        C      tau( 180) = (   0.2940362   0.1135308   0.1712030  )
       181        C      tau( 181) = (   0.3015473   0.7130427   0.2809373  )
       182        C      tau( 182) = (  -0.2682715   0.7706451   0.0680816  )
       183        C      tau( 183) = (  -0.0332667   0.2483832   0.1745156  )
       184        C      tau( 184) = (   0.8015340   0.1529926   0.2511935  )
       185        C      tau( 185) = (   0.4667394   0.6176690   0.0383378  )
       186        C      tau( 186) = (   0.2317395   0.0953818   0.1447595  )
       187        C      tau( 187) = (   0.2486309   0.7023609   0.0636886  )
       188        C      tau( 188) = (  -0.2325588   0.7301559   0.1701162  )
       189        C      tau( 189) = (  -0.0160584   0.2995486   0.2765380  )
       190        C      tau( 190) = (   0.7486129   0.1636762   0.1491589  )
       191        C      tau( 191) = (   0.4839470   0.5665011   0.2555865  )
       192        C      tau( 192) = (   0.2674459   0.1358673   0.0427370  )
       193        C      tau( 193) = (   0.3104331   0.7011104   0.0303478  )
       194        C      tau( 194) = (  -0.2623650   0.7842989   0.1367683  )
       195        C      tau( 195) = (  -0.0480488   0.2466597   0.2432020  )
       196        C      tau( 196) = (   0.8104052   0.1649346   0.1825068  )
       197        C      tau( 197) = (   0.4519629   0.6193981   0.2889272  )
       198        C      tau( 198) = (   0.2376380   0.0817184   0.0760731  )
       199        C      tau( 199) = (   0.1393074   0.6610534   0.0641557  )
       200        C      tau( 200) = (  -0.1421339   0.6561381   0.1705841  )
       201        C      tau( 201) = (   0.0028356   0.4148675   0.2770051  )
       202        C      tau( 202) = (   0.6392992   0.2049774   0.1486910  )
       203        C      tau( 203) = (   0.5028354   0.4511705   0.2551194  )
       204        C      tau( 204) = (   0.3578679   0.2098894   0.0422700  )
       205        N      tau( 205) = (   0.1962469   0.6731197   0.2879173  )
       206        N      tau( 206) = (  -0.1810488   0.6994127   0.0750690  )
       207        N      tau( 207) = (  -0.0151854   0.3595287   0.1814906  )
       208        N      tau( 208) = (   0.6962336   0.1929135   0.2442061  )
       209        N      tau( 209) = (   0.4848153   0.5065147   0.0313578  )
       210        N      tau( 210) = (   0.3189537   0.1666134   0.1377845  )
       211        N      tau( 211) = (   0.1370111   0.6334445   0.1267718  )
       212        N      tau( 212) = (  -0.1170813   0.6679555   0.2332002  )
       213        N      tau( 213) = (  -0.0199262   0.4306531   0.0203469  )
       214        N      tau( 214) = (   0.6370071   0.2325824   0.0860749  )
       215        N      tau( 215) = (   0.4800735   0.4353774   0.1925033  )
       216        N      tau( 216) = (   0.3829197   0.1980700   0.2989282  )
       217        C      tau( 217) = (   0.4874805   0.8443411   0.1596375  )
       218        O      tau( 218) = (   0.4874543   0.8443522   0.1061981  )
       219        O      tau( 219) = (   0.4875033   0.8443239   0.2130770  )

     number of k points=     2
                       cart. coord. in units 2pi/alat
        k(    1) = (   0.0000000   0.0000000   0.0000000), wk =   1.0000000
        k(    2) = (   0.0000000   0.0000000  -1.5660481), wk =   1.0000000

     Dense  grid:  3506219 G-vectors     FFT dimensions: ( 300, 300,  96)

     Smooth grid:  1239959 G-vectors     FFT dimensions: ( 216, 216,  72)

     Estimated max dynamical RAM per process >     630.76 MB

     Estimated total dynamical RAM >      14.78 GB

     Check: negative core charge=   -0.000001

     Initial potential from superposition of free atoms

     starting charge     609.9901, renormalised to     610.0000
     Starting wfcs are  570 randomized atomic wfcs
     Checking if some PAW data can be deallocated... 

     total cpu time spent up to now is       43.7 secs

     per-process dynamical memory:   319.8 Mb

     Self-consistent Calculation

     iteration #  1     ecut=    60.00 Ry     beta= 0.30
     Davidson diagonalization with overlap
     ethr =  1.00E-02,  avg # of iterations =  2.0

     total cpu time spent up to now is      114.1 secs

     total energy              =   -2856.05540736 Ry
     estimated scf accuracy    <      24.41422719 Ry

     iteration #  2     ecut=    60.00 Ry     beta= 0.30
     Davidson diagonalization with overlap
     ethr =  4.00E-03,  avg # of iterations =  2.0

     total cpu time spent up to now is      167.8 secs

     total energy              =   -2855.49470364 Ry
     estimated scf accuracy    <       5.48193684 Ry

     iteration #  3     ecut=    60.00 Ry     beta= 0.30
     Davidson diagonalization with overlap
     ethr =  8.99E-04,  avg # of iterations =  3.5

     total cpu time spent up to now is      237.2 secs

     total energy              =   -2856.31654712 Ry
     estimated scf accuracy    <       0.93400672 Ry

     iteration #  4     ecut=    60.00 Ry     beta= 0.30
     Davidson diagonalization with overlap
     ethr =  1.53E-04,  avg # of iterations =  2.5

     negative rho (up, down):  1.587E-07 0.000E+00

     total cpu time spent up to now is      296.7 secs

     total energy              =   -2856.32879572 Ry
     estimated scf accuracy    <       0.20937109 Ry

     iteration #  5     ecut=    60.00 Ry     beta= 0.30
     Davidson diagonalization with overlap
     ethr =  3.43E-05,  avg # of iterations =  4.0

     negative rho (up, down):  1.869E-07 0.000E+00

     total cpu time spent up to now is      371.4 secs

     total energy              =   -2856.34372634 Ry
     estimated scf accuracy    <       0.04872948 Ry

     iteration #  6     ecut=    60.00 Ry     beta= 0.30
     Davidson diagonalization with overlap
     ethr =  7.99E-06,  avg # of iterations =  5.0

     negative rho (up, down):  2.523E-07 0.000E+00

     total cpu time spent up to now is      440.9 secs

     total energy              =   -2856.35605636 Ry
     estimated scf accuracy    <       0.01046885 Ry

     iteration #  7     ecut=    60.00 Ry     beta= 0.30
     Davidson diagonalization with overlap
     ethr =  1.72E-06,  avg # of iterations =  7.0

     negative rho (up, down):  3.052E-07 0.000E+00

     total cpu time spent up to now is      506.6 secs

     total energy              =   -2856.35698032 Ry
     estimated scf accuracy    <       0.00222388 Ry

     iteration #  8     ecut=    60.00 Ry     beta= 0.30
     Davidson diagonalization with overlap
     ethr =  3.65E-07,  avg # of iterations =  7.0

     negative rho (up, down):  3.007E-07 0.000E+00

     total cpu time spent up to now is      585.8 secs

     total energy              =   -2856.35765609 Ry
     estimated scf accuracy    <       0.00052017 Ry

     iteration #  9     ecut=    60.00 Ry     beta= 0.30
     Davidson diagonalization with overlap
     ethr =  8.53E-08,  avg # of iterations =  4.5

     negative rho (up, down):  3.038E-07 0.000E+00

     total cpu time spent up to now is      651.0 secs

     total energy              =   -2856.35770495 Ry
     estimated scf accuracy    <       0.00006506 Ry

     iteration # 10     ecut=    60.00 Ry     beta= 0.30
     Davidson diagonalization with overlap
     ethr =  1.07E-08,  avg # of iterations =  5.5

     negative rho (up, down):  3.082E-07 0.000E+00

     total cpu time spent up to now is      732.9 secs

     total energy              =   -2856.35772162 Ry
     estimated scf accuracy    <       0.00001737 Ry

     iteration # 11     ecut=    60.00 Ry     beta= 0.30
     Davidson diagonalization with overlap
     ethr =  2.85E-09,  avg # of iterations =  6.0

     negative rho (up, down):  3.100E-07 0.000E+00

     total cpu time spent up to now is      817.5 secs

     total energy              =   -2856.35772646 Ry
     estimated scf accuracy    <       0.00000852 Ry

     iteration # 12     ecut=    60.00 Ry     beta= 0.30
     Davidson diagonalization with overlap
     ethr =  1.40E-09,  avg # of iterations =  5.5

     negative rho (up, down):  3.116E-07 0.000E+00

     total cpu time spent up to now is      887.1 secs

     total energy              =   -2856.35772746 Ry
     estimated scf accuracy    <       0.00000099 Ry

     iteration # 13     ecut=    60.00 Ry     beta= 0.30
     Davidson diagonalization with overlap
     ethr =  1.62E-10,  avg # of iterations =  7.0

     negative rho (up, down):  3.132E-07 0.000E+00

     total cpu time spent up to now is      969.4 secs

     total energy              =   -2856.35772792 Ry
     estimated scf accuracy    <       0.00000024 Ry

     iteration # 14     ecut=    60.00 Ry     beta= 0.30
     Davidson diagonalization with overlap
     ethr =  3.99E-11,  avg # of iterations =  6.0

     negative rho (up, down):  3.143E-07 0.000E+00

     total cpu time spent up to now is     1035.9 secs

     total energy              =   -2856.35772790 Ry
     estimated scf accuracy    <       0.00000012 Ry

     iteration # 15     ecut=    60.00 Ry     beta= 0.30
     Davidson diagonalization with overlap
     ethr =  1.98E-11,  avg # of iterations =  5.0

     negative rho (up, down):  3.169E-07 0.000E+00

     total cpu time spent up to now is     1108.5 secs

     End of self-consistent calculation

          k = 0.0000 0.0000 0.0000 (154911 PWs)   bands (ev):

   -24.8733 -23.8720 -22.2314 -22.2314 -22.0910 -22.0910 -22.0907 -22.0906
   -20.2978 -20.2973 -20.2840 -20.2836 -20.2834 -20.2830 -19.7605 -19.7601
   -19.7415 -19.7414 -19.7412 -19.7410 -18.4315 -18.4305 -18.4301 -18.4290
   -18.4267 -18.4255 -17.8300 -17.8288 -17.8285 -17.8273 -17.8252 -17.8239
   -16.8992 -16.8905 -16.8900 -16.2488 -16.2273 -16.2269 -15.1139 -15.1139
   -15.1045 -15.0521 -15.0521 -15.0429 -14.4856 -14.4707 -14.4676 -14.4670
   -14.4659 -14.4615 -14.4201 -14.3727 -14.3722 -14.2505 -14.2417 -14.2412
   -14.0097 -14.0093 -13.9987 -12.8263 -12.7477 -12.7473 -12.3759 -12.3737
   -12.3675 -12.3615 -12.3598 -12.3549 -11.3763 -11.3759 -11.3585 -11.3104
   -11.3097 -11.3030 -11.2543 -11.2521 -11.2455 -10.9657 -10.9654 -10.9326
   -10.4790 -10.4105 -10.4081 -10.4012 -10.3849 -10.3819 -10.3716 -10.3563
   -10.3559 -10.0561 -10.0557 -10.0143  -9.5716  -9.5191  -9.3216  -9.3180
    -9.3124  -9.2764  -9.2725  -9.2671  -9.2417  -9.2414  -9.1600  -8.6492
    -8.6489  -8.3997  -8.3987  -8.3835  -8.3738  -8.3720  -8.3691  -8.3660
    -8.3417  -8.3391  -8.2756  -8.2747  -8.1700  -8.0332  -8.0328  -8.0291
    -7.9697  -7.9590  -7.9562  -7.7787  -7.7785  -7.5304  -7.4687  -7.4371
    -7.4370  -7.3798  -7.3796  -7.3088  -7.1898  -7.1897  -7.1145  -7.0403
    -7.0368  -7.0352  -6.9977  -6.9967  -6.9378  -6.9297  -6.9264  -6.9259
    -6.8666  -6.8660  -6.7670  -6.7668  -6.7246  -6.7111  -6.7084  -6.7081
    -6.6244  -6.5639  -6.5612  -6.5148  -6.5129  -6.4053  -6.3131  -6.2890
    -6.2884  -6.2050  -6.1933  -6.1931  -6.1914  -6.1458  -6.1423  -6.0980
    -6.0793  -6.0759  -6.0651  -6.0248  -6.0117  -5.8811  -5.8796  -5.8692
    -5.8684  -5.7373  -5.7333  -5.6907  -5.6881  -5.6790  -5.6787  -5.6380
    -5.6378  -5.6023  -5.5750  -5.5717  -5.5602  -5.2889  -5.2885  -5.2655
    -5.2460  -5.2287  -5.2284  -5.2239  -5.2238  -5.1589  -5.1415  -5.1408
    -5.0966  -4.9966  -4.9901  -4.9897  -4.8813  -4.8707  -4.8519  -4.8497
    -4.8408  -4.8392  -4.8099  -4.8090  -4.6587  -4.6580  -4.6539  -4.6024
    -4.5999  -4.5865  -4.5099  -4.5095  -4.4937  -4.3889  -4.3886  -4.2736
    -4.1223  -4.1218  -4.0535  -3.9045  -3.9024  -3.8572  -3.8534  -3.8433
    -3.8410  -3.7983  -3.7977  -3.7597  -3.6608  -3.6319  -3.6289  -3.6214
    -3.6173  -3.6095  -3.5432  -3.5391  -3.5175  -3.4832  -3.4492  -3.4478
    -3.4454  -3.4179  -3.4167  -3.3417  -3.3020  -3.2939  -3.2934  -3.2847
    -3.2199  -3.2175  -3.1119  -3.0947  -3.0943  -3.0602  -3.0596  -2.8130
    -2.8130  -2.7190  -2.7189  -2.6715  -2.6467  -2.3963  -2.3951  -2.3311
    -2.3301  -2.2318  -2.2243  -2.1442  -2.1441  -2.1401  -2.1400  -2.0890
    -2.0844  -1.8927  -1.8924  -1.8836  -1.8833  -1.8604  -1.8547  -1.6063
    -1.6061  -1.5696  -1.5694  -1.4248  -1.4212  -1.2668  -1.2664  -1.1929
    -0.8312  -0.8288  -0.8258  -0.7913  -0.7905  -0.7872  -0.3646  -0.3642
    -0.2882

          k = 0.0000 0.0000-1.5660 (154844 PWs)   bands (ev):

   -24.8732 -23.8722 -22.1723 -22.1722 -22.1719 -22.1719 -22.0608 -22.0607
   -20.3278 -20.3274 -20.3274 -20.3270 -20.2697 -20.2692 -19.7410 -19.7407
   -19.7406 -19.7403 -19.7116 -19.7114 -18.3974 -18.3962 -18.3952 -18.3939
   -18.3922 -18.3909 -17.8786 -17.8774 -17.8751 -17.8739 -17.8728 -17.8715
   -16.8810 -16.8808 -16.8802 -16.2366 -16.2362 -16.2338 -15.1099 -15.1099
   -15.1005 -15.0481 -15.0481 -15.0389 -14.4653 -14.4647 -14.4621 -14.4621
   -14.4595 -14.4568 -14.3898 -14.3894 -14.3760 -14.2916 -14.2912 -14.2859
   -14.0016 -14.0012 -13.9940 -12.7875 -12.7871 -12.7565 -12.3811 -12.3766
   -12.3730 -12.3683 -12.3633 -12.3597 -11.3954 -11.3950 -11.3505 -11.2390
   -11.2377 -11.2310 -11.1835 -11.1806 -11.1744 -10.9230 -10.9226 -10.8594
   -10.4468 -10.4466 -10.4415 -10.4212 -10.4193 -10.4146 -10.3761 -10.3759
   -10.3026 -10.0594 -10.0590 -10.0265  -9.5571  -9.4372  -9.4368  -9.3255
    -9.3242  -9.3181  -9.2827  -9.2804  -9.2738  -9.2647  -8.9754  -8.9752
    -8.5857  -8.4288  -8.4278  -8.4256  -8.4246  -8.4036  -8.3985  -8.3976
    -8.3893  -8.3867  -8.2370  -8.1321  -8.1319  -7.8306  -7.8279  -7.8153
    -7.7544  -7.7496  -7.7466  -7.7300  -7.6444  -7.6443  -7.5979  -7.5975
    -7.5533  -7.3437  -7.2484  -7.2484  -7.1739  -7.1730  -7.1534  -7.0848
    -7.0747  -7.0725  -7.0419  -7.0007  -6.9951  -6.9946  -6.9544  -6.8907
    -6.8894  -6.8696  -6.8101  -6.8066  -6.7779  -6.7745  -6.5921  -6.5880
    -6.5715  -6.5709  -6.4345  -6.4327  -6.4217  -6.3390  -6.3182  -6.3177
    -6.2633  -6.2631  -6.2205  -6.1641  -6.1628  -6.1285  -6.1138  -6.1105
    -6.0412  -6.0273  -6.0273  -6.0181  -6.0179  -6.0015  -5.9601  -5.9582
    -5.9479  -5.9458  -5.9009  -5.8687  -5.8461  -5.8457  -5.7292  -5.6876
    -5.6874  -5.6839  -5.6806  -5.6804  -5.6754  -5.6523  -5.6226  -5.6173
    -5.4979  -5.4713  -5.4656  -5.2890  -5.2290  -5.2287  -5.2120  -5.1273
    -5.1271  -5.0470  -5.0463  -4.9733  -4.9710  -4.9702  -4.9436  -4.9352
    -4.9334  -4.9148  -4.8139  -4.8129  -4.6524  -4.6330  -4.6296  -4.5855
    -4.5835  -4.5794  -4.3379  -4.3377  -4.3275  -4.3054  -4.3052  -4.2243
    -4.1954  -4.0716  -4.0713  -3.9509  -3.8830  -3.8810  -3.8536  -3.8521
    -3.8267  -3.6660  -3.6648  -3.6648  -3.6210  -3.6147  -3.6115  -3.6018
    -3.5993  -3.5908  -3.5442  -3.5023  -3.5003  -3.4850  -3.4694  -3.4647
    -3.4180  -3.3519  -3.2906  -3.2899  -3.2870  -3.0606  -3.0601  -2.9925
    -2.9922  -2.9611  -2.9610  -2.9534  -2.9432  -2.9420  -2.9345  -2.7324
    -2.6650  -2.6290  -2.6290  -2.6171  -2.6170  -2.4586  -2.3843  -2.3840
    -2.3674  -2.3485  -2.3480  -2.1049  -2.1033  -2.0831  -2.0830  -2.0755
    -2.0753  -1.9608  -1.9235  -1.9231  -1.8834  -1.8386  -1.8382  -1.6226
    -1.6225  -1.6018  -1.6018  -1.6007  -1.5638  -1.2528  -1.2525  -1.1889
    -0.8278  -0.8259  -0.8199  -0.7926  -0.7911  -0.7871  -0.3441  -0.3268
    -0.3264

     highest occupied level (ev):    -0.2882

!    total energy              =   -2856.35772794 Ry
     estimated scf accuracy    <       0.00000002 Ry

     The total energy is the sum of the following terms:
     one-electron contribution =   -5749.56509510 Ry
     hartree contribution      =    3067.17197982 Ry
     xc contribution           =    -663.93335092 Ry
     ewald contribution        =    1354.87584577 Ry
     one-center paw contrib.   =    -864.90710750 Ry

     convergence has been achieved in  15 iterations
     Message from routine punch:
     Nothing written, as per user request (disk_io='none')

     init_run     :     68.59s CPU     43.41s WALL (       1 calls)
     electrons    :   1763.82s CPU   1064.88s WALL (       1 calls)

     Called by init_run:
     wfcinit      :     60.44s CPU     35.96s WALL (       1 calls)
     potinit      :      2.60s CPU      1.99s WALL (       1 calls)
     hinit0       :      1.55s CPU      1.29s WALL (       1 calls)

     Called by electrons:
     c_bands      :   1463.15s CPU    845.21s WALL (      15 calls)
     sum_band     :    231.50s CPU    158.26s WALL (      15 calls)
     v_of_rho     :     14.41s CPU     11.07s WALL (      16 calls)
     newd         :     39.36s CPU     41.35s WALL (      16 calls)
     PAW_pot      :     16.22s CPU     10.01s WALL (      16 calls)
     mix_rho      :      1.87s CPU      1.53s WALL (      15 calls)

     Called by c_bands:
     init_us_2    :      9.06s CPU      9.17s WALL (      62 calls)
     cegterg      :   1452.86s CPU    834.87s WALL (      30 calls)

     Called by *egterg:
     cdiaghg      :     36.41s CPU     19.31s WALL (     175 calls)
     h_psi        :    888.68s CPU    523.37s WALL (     177 calls)
     s_psi        :    119.22s CPU     60.84s WALL (     177 calls)
     g_psi        :      3.20s CPU      1.72s WALL (     145 calls)

     Called by h_psi:
     h_psi:calbec :    148.95s CPU     79.20s WALL (     177 calls)
     vloc_psi     :    616.89s CPU    379.66s WALL (     177 calls)
                                        0.00s GPU  (     177 calls)
     add_vuspsi   :    118.29s CPU     60.70s WALL (     177 calls)

     General routines
     calbec       :    193.27s CPU    102.10s WALL (     207 calls)
     fft          :     13.94s CPU     11.61s WALL (     206 calls)
     ffts         :      1.11s CPU      0.90s WALL (      31 calls)
     fftw         :    695.21s CPU    433.51s WALL (   62404 calls)
     interpolate  :      1.39s CPU      1.11s WALL (      16 calls)

     Parallel routines

     PWSCF        :  30m32.67s CPU  18m28.65s WALL


   This run was terminated on:  13:17:28  17Sep2026            

=------------------------------------------------------------------------------=
   JOB DONE.
=------------------------------------------------------------------------------=
Note: The following floating-point exceptions are signalling: IEEE_INVALID_FLAG
Note: The following floating-point exceptions are signalling: IEEE_INVALID_FLAG
Note: The following floating-point exceptions are signalling: IEEE_INVALID_FLAG
Note: The following floating-point exceptions are signalling: IEEE_INVALID_FLAG
Note: The following floating-point exceptions are signalling: IEEE_INVALID_FLAG IEEE_UNDERFLOW_FLAG IEEE_DENORMAL
Note: The following floating-point exceptions are signalling: IEEE_INVALID_FLAG
Note: The following floating-point exceptions are signalling: IEEE_INVALID_FLAG
Note: The following floating-point exceptions are signalling: IEEE_INVALID_FLAG
Note: The following floating-point exceptions are signalling: IEEE_INVALID_FLAG
Note: The following floating-point exceptions are signalling: IEEE_INVALID_FLAG
Note: The following floating-point exceptions are signalling: IEEE_INVALID_FLAG IEEE_UNDERFLOW_FLAG IEEE_DENORMAL
Note: The following floating-point exceptions are signalling: IEEE_INVALID_FLAG
Note: The following floating-point exceptions are signalling: IEEE_INVALID_FLAG
Note: The following floating-point exceptions are signalling: IEEE_INVALID_FLAG
Note: The following floating-point exceptions are signalling: IEEE_INVALID_FLAG
Note: The following floating-point exceptions are signalling: IEEE_INVALID_FLAG
Note: The following floating-point exceptions are signalling: IEEE_INVALID_FLAG
Note: The following floating-point exceptions are signalling: IEEE_INVALID_FLAG
Note: The following floating-point exceptions are signalling: IEEE_INVALID_FLAG IEEE_UNDERFLOW_FLAG IEEE_DENORMAL
Note: The following floating-point exceptions are signalling: IEEE_INVALID_FLAG
Note: The following floating-point exceptions are signalling: IEEE_INVALID_FLAG
Note: The following floating-point exceptions are signalling: IEEE_INVALID_FLAG IEEE_UNDERFLOW_FLAG IEEE_DENORMAL
Note: The following floating-point exceptions are signalling: IEEE_INVALID_FLAG
Note: The following floating-point exceptions are signalling: IEEE_INVALID_FLAG
